c-----------------------------------------------------------------------------------------
c LSPC -- Loading Simulation Program, C++
c Version 6.23 (64-bit) - March 2025
c
c Created through code updates by:
c Paradigm Environmental, Inc.
c San Diego, California, USA
c www.paradigmh2o.com
c 
c Based upon LSPC version 5.0 (Mar 2018), originally developed by :
c United States Environmental Protection Agency
c with support by Tetra Tech, Inc.
c https://github.com/USEPA/LSPC-Loading-Simulation-Program 
c 
c NOTE: The line starting with the letter c and followed by space or - is a comment line.
c       There must be no comment line in between the data lines
c       The input text field must be a continuous string without any space in between the characters
c-----------------------------------------------------------------------------------------
c LSPC MODEL INPUT FILE
c This input file was created at 03:05:20pm on 06/26/2026
c-----------------------------------------------------------------------------------------
c0   general control
c 
c    snowfg   if = 1 run snow module
c    pwatfg   if = 1 run pwater
c    sedfg    if = 1 run sediment
c    pqalfg   if = 1 run general quality
c    tempfg   if = 1 run temperature module
c    oxfg     if = 1 run DO-BOD module
c    nutfg    if = 1 run nutrients module
c    plkfg    if = 1 run plank module
c    phfg     if = 1 run pH-CO2 module
c
c	snowfg	pwatfg	sedfg	pqalfg	tempfg	oxfg	nutfg	plkfg	phfg
	0	1	0	0	0	0	0	0	0
c-----------------------------------------------------------------------------------------
c10  weather file definition (name and parameters)
c 
c    wfileid    weather file id
c    wfilename  weather file name
c    wparamnum  number of parameters in the weather file
c    wparamid   weather paramter id
c               1-precipitation (in/ivl)
c               2-potential evaporation (in/ivl)
c               3-air temperature (degree F)
c               4-wind travel (mile/ivl)
c               5-solar radiation (ly/ivl)
c               6-dew point (degree F)
c               7-cloud cover (tenth)
c
c	wfileid	wfilename	wparamnum	wparamid...
	1	387829_GHCND_USC00046370.pre	1	1
	2	387830_GHCND_USC00046370.pre	1	1
	3	389233_GHCND_USC00046370.pre	1	1
	4	389234_GHCND_USC00046370.pre	1	1
	5	389235_GHCND_USC00046370.pre	1	1
	6	389236_GHCND_USC00046370.pre	1	1
	7	390639_GHCND_USC00046370.pre	1	1
	8	390640_GHCND_USC00046370.pre	1	1
	9	387829.air	6	2	3	4	5	6	7
	10	387830.air	6	2	3	4	5	6	7
	11	389233.air	6	2	3	4	5	6	7
	12	389234.air	6	2	3	4	5	6	7
	13	389235.air	6	2	3	4	5	6	7
	14	389236.air	6	2	3	4	5	6	7
	15	390639.air	6	2	3	4	5	6	7
	16	390640.air	6	2	3	4	5	6	7
c-----------------------------------------------------------------------------------------
c15  weather station definition (station id and associated weather files)
c 
c    wstationid  weather station id
c    wfilenum   number of files for the weather station
c    wfileid    weather file id (card 10)
c
c	wstationid	wfilenum	wfileid...
	1	2	3	11
	2	2	4	12
	3	2	1	9
	4	2	2	10
	5	2	6	14
	6	2	5	13
	7	2	8	16
	8	2	7	15
c-----------------------------------------------------------------------------------------
c20  weather parameter multiplier
c 
c    wstationid  weather station id (card 15)
c    wparmmult   multiplier for each weather parameter
c       1- multiplier for precipitation
c       2- multiplier for potential evapotranspiration
c       3- multiplier for air temperature
c       4- multiplier for wind travel
c       5- multiplier for solar radiation
c       6- multiplier for dew point
c       7- multiplier for cloud cover
c
c	wstationid	wparmmult1...  
	1	1.000000	1.000000	1.000000	1.000000	1.000000	1.000000	1.000000
	2	1.000000	1.000000	1.000000	1.000000	1.000000	1.000000	1.000000
	3	1.000000	1.000000	1.000000	1.000000	1.000000	1.000000	1.000000
	4	1.000000	1.000000	1.000000	1.000000	1.000000	1.000000	1.000000
	5	1.000000	1.000000	1.000000	1.000000	1.000000	1.000000	1.000000
	6	1.000000	1.000000	1.000000	1.000000	1.000000	1.000000	1.000000
	7	1.000000	1.000000	1.000000	1.000000	1.000000	1.000000	1.000000
	8	1.000000	1.000000	1.000000	1.000000	1.000000	1.000000	1.000000
c-----------------------------------------------------------------------------------------
c30	output file path (a continuous string)	input (weather) file path (a continuous string)	tipping bucket size (inches) 
	Output\	Input\Weather\	0.020000
c-----------------------------------------------------------------------------------------
c31	point source file path	point source file name  (each must be a continuous string)
	Input\	Salmon_No_Div_2025-07-31.ps
c-----------------------------------------------------------------------------------------
c40 general watershed controls
c
c    nsubbasin   number of subwatersheds
c    nrchid      number of stream channels (corresponds with number of subwatersheds)
c    nrgid       number of stream groups to assign parameters
c    ndefid      number of land groups to assign parameters
c    ndeluid     maximum number of land use
c
c	nsws	nrch	nrgroup	nlgroup	nlandp
	30	30	1	1	98
c-----------------------------------------------------------------------------------------
c45  general output controls
c
c    Standard    Output standard model parameters
c    Snow        Output snow related parameters
c    Hydrology   Output hydrology related parameters
c    Sediment    Output sediment related parameters
c    GQUAL       Output general water quality related parameters
c    RQUAL       Output biochemical water quality related parameters
c    Custom      Output user specified parameters
c    Landuse     Output landuse summary
c                 if = 0 no output 
c                 if = 1 average annual output
c                 if = 2 yearly output
c                 if = 3 monthly output
c    Stream      Output stream summary
c                 if = 0 no output 
c                 if = 1 average annual output
c                 if = 2 yearly output
c                 if = 3 monthly output
c    WaterBudget Output water budget summary
c                 if = 0 no output 
c                 if = 1 average annual output
c                 if = 2 yearly output
c                 if = 3 monthly output
c    PointSource Output point source summary
c                 if = 0 no output 
c                 if = 1 average annual output
c                 if = 2 yearly output
c                 if = 3 monthly output
c    Threshold   Output threshold analysis summary
c                 if = 0 no output 
c                 if = 1 average monthly output
c    SUSTAIN     Output unit-area land HRU timeseries for SUSTAIN external option
c                 if = 0 no output 
c                 if = 1 HRU timeseries output with gully erosion included (AGWI=0)
c                 if = 2 HRU timeseries output with gully erosion separated (AGWI=0)
c                 if = 3 HRU timeseries output with gully erosion included (AGWI=Values)
c                 if = 4 HRU timeseries output with gully erosion separated (AGWI=Values)
c    BASEFLOW    Output edge-of-stream baseflow timeseries for SUSTAIN external option
c                 if = 0 no output 
c                 if = 1 combine IFWO & AGWO timeseries output
c                 if = 2 separate IFWO & AGWO timeseries output
c    BANKEROSION Output bank erosion timeseries for SUSTAIN external option
c                 if = 0 no output 
c                 if = 1 bank erosion plus bed scour minus deposition timeseries output
c                 if = 2 bank erosion only timeseries output
c    AquiferConc Output aquifer conc. summary
c                 if = 0 no output 
c                 if = 1 flow weighted conc.
c    RQualLink   Output aquifer conc. summary
c                 if = 0 no output 
c                 if = 1 mass weighted fractions
c    RQualHRUts  Output unit-area land HRU timeseries for SUSTAIN external option
c                 if = 0 GQUAL output 
c                 if = 1 GQUAL + RQUAL species (NOx [NO2+NO3], DIN [NOx+TAM], DRP [PO4])
c    QLOSS       Output instream flow loss timeseries for SUSTAIN external option
c                 if = 0 no output 
c                 if = 1 timeseries output
c
c	Standard	Snow	Hydrology	Sediment	GQUAL	RQUAL	Custom	Landuse	Stream	WaterBudget	PointSource	Threshold	SUSTAIN	BASEFLOW	BANKEROSION	AquiferConc	RQualLink	RQualHRUts	QLOSS
	0	0	0	0	0	0	0	0	3	0	0	0	0	0	0	0	0	0	0
c-----------------------------------------------------------------------------------------
c46  user specified output parameter list
c
c	PRECP	AIRTMP	SNOTMP	SNOWF	RAINF	PRAIN	MELT	SNOWE	WYIELD	PACK	PACKF	PACKW	PACKI	PDEPTH	COVINDX	NEGHTS	XLNMELT	RDENPKF	SKYCLEAR	SNOCOV	DULLNESS	ALBEDO	PAKTEMP	DEWTMP	SURS	UZS	LZS	AGWS	SURO	IFWO	AGWO	PERO	TAET	PERC	INFIL	GWI	IGWI	AGWI	DEP	AVDEP	HRAD	AVVEL	SAREA	VOLUME	QIN	EVAP	RIPET	RO	TAU	WSSD	SCRSD	SOSED	SOBER	SSEDC	LSSED	LRSED	LBEDDEP	LDEPSCR	LROSED	SQO	WASHQS	SCRQS	SOQO	POQUAL	SOQUAL	IOQUAL	GOQUAL	POQC	CONC	CONCOUT	CONCSQAL	MATSQAL	MATIN	MATOUT	MATOSQAL	DOX	DOXMIN	DOXMAX	DOXAV	DOXX	BOD	BODX	NO3	NO3X	TAM	TAMX	NO2	NO2X	PO4	PO4X	SNH4	SNH4X	SPO4	SPO4X	PHYTO	PHYTOX	PHYCLA	BENAL	ORN	ORNX	ORP	ORPX	ORC	ORCX	NOX	DIN	TN	TP	PH	ALK	TIC	TICX	CO2	CO2X	TEMP
c-----------------------------------------------------------------------------------------
c50  model simulation time period
c
c    mstart   model start day.
c    mend     model end day.
c    deltm    time step in minutes.
c    mostart  model output start day.
c    moend    model output end day.
c    optlevel  if = 1 general output (daily)
c              if = 2 output per hour (hourly)
c              if = 3 output per time interval (minute)
c
c	mstart	mend	deltm	mostart	moend	optlevel
	10/1/2003	7/31/2025	60	10/1/2004	7/31/2025	1
c-----------------------------------------------------------------------------------------
c60  group information
c 
c    subbasin  subbasin id
c    defid     group parameter id
c    nwst      number of weather stations assigned to the watershed
c    wsti = station id
c    wti = weighting to calculate input
c
c	subbasin	defid	nwst	wst1	wt1	wst2	wt2   ...
	3879534	1	1	1	1.000000
	3879536	1	1	1	1.000000
	3879552	1	1	2	1.000000
	3879554	1	1	1	1.000000
	3879556	1	1	2	1.000000
	3879558	1	1	1	1.000000
	3879560	1	1	1	1.000000
	3879562	1	1	2	1.000000
	3879564	1	1	1	1.000000
	3879566	1	1	1	1.000000
	3879568	1	1	2	1.000000
	3879720	1	1	1	1.000000
	3879750	1	1	2	1.000000
	3879966	1	1	3	1.000000
	3879968	1	1	3	1.000000
	3879970	1	1	3	1.000000
	3879972	1	1	3	1.000000
	3879974	1	1	3	1.000000
	3879976	1	1	4	1.000000
	3879978	1	1	2	1.000000
	3879980	1	1	5	1.000000
	3879982	1	1	6	1.000000
	3879984	1	1	2	1.000000
	3879986	1	1	6	1.000000
	3879988	1	1	6	1.000000
	3879990	1	1	7	1.000000
	3879994	1	1	7	1.000000
	3880284	1	1	5	1.000000
	8889992	1	1	8	1.000000
	9999992	1	1	7	1.000000
c-----------------------------------------------------------------------------------------
c70  modeled land use names
c 
c    deluid     landuse id
c    deluname   landuse name
c    premult    multiplier for precipitation
c    petmult    multiplier for potential evapotranspiration
c 
c	deluid	deluname	premult	petmult
	1000	Developed_Impervious-All-All-All	1.000000	1.000000
	2110	Developed_Pervious-A-Low-All	1.000000	1.000000
	2120	Developed_Pervious-A-Med-All	1.000000	1.000000
	2130	Developed_Pervious-A-High-All	1.000000	1.000000
	2210	Developed_Pervious-B-Low-All	1.000000	1.000000
	2220	Developed_Pervious-B-Med-All	1.000000	1.000000
	2230	Developed_Pervious-B-High-All	1.000000	1.000000
	2310	Developed_Pervious-C-Low-All	1.000000	1.000000
	2320	Developed_Pervious-C-Med-All	1.000000	1.000000
	2330	Developed_Pervious-C-High-All	1.000000	1.000000
	2410	Developed_Pervious-D-Low-All	1.000000	1.000000
	2420	Developed_Pervious-D-Med-All	1.000000	1.000000
	2430	Developed_Pervious-D-High-All	1.000000	1.000000
	3110	Barren-A-Low-All	1.000000	1.000000
	3120	Barren-A-Med-All	1.000000	1.000000
	3130	Barren-A-High-All	1.000000	1.000000
	3210	Barren-B-Low-All	1.000000	1.000000
	3220	Barren-B-Med-All	1.000000	1.000000
	3230	Barren-B-High-All	1.000000	1.000000
	3310	Barren-C-Low-All	1.000000	1.000000
	3320	Barren-C-Med-All	1.000000	1.000000
	3330	Barren-C-High-All	1.000000	1.000000
	3410	Barren-D-Low-All	1.000000	1.000000
	3420	Barren-D-Med-All	1.000000	1.000000
	3430	Barren-D-High-All	1.000000	1.000000
	4110	Forest-A-Low-All	1.000000	1.000000
	4120	Forest-A-Med-All	1.000000	1.000000
	4130	Forest-A-High-All	1.000000	1.000000
	4210	Forest-B-Low-All	1.000000	1.000000
	4220	Forest-B-Med-All	1.000000	1.000000
	4230	Forest-B-High-All	1.000000	1.000000
	4310	Forest-C-Low-All	1.000000	1.000000
	4320	Forest-C-Med-All	1.000000	1.000000
	4330	Forest-C-High-All	1.000000	1.000000
	4410	Forest-D-Low-All	1.000000	1.000000
	4420	Forest-D-Med-All	1.000000	1.000000
	4430	Forest-D-High-All	1.000000	1.000000
	5110	Scrub-A-Low-All	1.000000	1.000000
	5120	Scrub-A-Med-All	1.000000	1.000000
	5130	Scrub-A-High-All	1.000000	1.000000
	5210	Scrub-B-Low-All	1.000000	1.000000
	5220	Scrub-B-Med-All	1.000000	1.000000
	5230	Scrub-B-High-All	1.000000	1.000000
	5310	Scrub-C-Low-All	1.000000	1.000000
	5320	Scrub-C-Med-All	1.000000	1.000000
	5330	Scrub-C-High-All	1.000000	1.000000
	5410	Scrub-D-Low-All	1.000000	1.000000
	5420	Scrub-D-Med-All	1.000000	1.000000
	5430	Scrub-D-High-All	1.000000	1.000000
	6110	Grassland-A-Low-All	1.000000	1.000000
	6120	Grassland-A-Med-All	1.000000	1.000000
	6130	Grassland-A-High-All	1.000000	1.000000
	6210	Grassland-B-Low-All	1.000000	1.000000
	6220	Grassland-B-Med-All	1.000000	1.000000
	6230	Grassland-B-High-All	1.000000	1.000000
	6310	Grassland-C-Low-All	1.000000	1.000000
	6320	Grassland-C-Med-All	1.000000	1.000000
	6330	Grassland-C-High-All	1.000000	1.000000
	6410	Grassland-D-Low-All	1.000000	1.000000
	6420	Grassland-D-Med-All	1.000000	1.000000
	6430	Grassland-D-High-All	1.000000	1.000000
	7110	Pasture-A-Low-All	1.000000	1.000000
	7120	Pasture-A-Med-All	1.000000	1.000000
	7130	Pasture-A-High-All	1.000000	1.000000
	7210	Pasture-B-Low-All	1.000000	1.000000
	7220	Pasture-B-Med-All	1.000000	1.000000
	7230	Pasture-B-High-All	1.000000	1.000000
	7310	Pasture-C-Low-All	1.000000	1.000000
	7320	Pasture-C-Med-All	1.000000	1.000000
	7330	Pasture-C-High-All	1.000000	1.000000
	7410	Pasture-D-Low-All	1.000000	1.000000
	7420	Pasture-D-Med-All	1.000000	1.000000
	7430	Pasture-D-High-All	1.000000	1.000000
	8110	Agriculture-A-Low-All	1.000000	1.000000
	8120	Agriculture-A-Med-All	1.000000	1.000000
	8130	Agriculture-A-High-All	1.000000	1.000000
	8210	Agriculture-B-Low-All	1.000000	1.000000
	8220	Agriculture-B-Med-All	1.000000	1.000000
	8230	Agriculture-B-High-All	1.000000	1.000000
	8310	Agriculture-C-Low-All	1.000000	1.000000
	8320	Agriculture-C-Med-All	1.000000	1.000000
	8330	Agriculture-C-High-All	1.000000	1.000000
	8410	Agriculture-D-Low-All	1.000000	1.000000
	8420	Agriculture-D-Med-All	1.000000	1.000000
	8430	Agriculture-D-High-All	1.000000	1.000000
	9000	Water-All-All-All	1.000000	1.000000
	10110	Irrigation-A-Low-All	1.000000	1.000000
	10120	Irrigation-A-Med-All	1.000000	1.000000
	10130	Irrigation-A-High-All	1.000000	1.000000
	10210	Irrigation-B-Low-All	1.000000	1.000000
	10220	Irrigation-B-Med-All	1.000000	1.000000
	10230	Irrigation-B-High-All	1.000000	1.000000
	10310	Irrigation-C-Low-All	1.000000	1.000000
	10320	Irrigation-C-Med-All	1.000000	1.000000
	10330	Irrigation-C-High-All	1.000000	1.000000
	10410	Irrigation-D-Low-All	1.000000	1.000000
	10420	Irrigation-D-Med-All	1.000000	1.000000
	10430	Irrigation-D-High-All	1.000000	1.000000
c-----------------------------------------------------------------------------------------
c80  land use to stream routing
c 
c    defid       landuse default group id
c    deluid      land use id
c    route_suro  fraction of surface runoff that routes to the stream (0-1) (default=1)
c                if negative (<0) value then that fraction will be lost from the system
c    route_ifwo  fraction of interflow outflow that routes to the stream (0-1) (default=1)
c                if negative (<0) value then that fraction will be lost from the system
c    route_agwo  fraction of groundwater outflow that routes to the stream (0-1) (default=1)
c                if negative (<0) value then that fraction will be lost from the system
c 
c    Example: 0.3 means 30% of outflow routes to the stream and 70% bypasses to the next down stream in the reach network
c            -0.3 means 30% of outflow is permanently lost from the system and 70% routes to the stream
c             Enter a value of -1 to permanently lose all water from the respective layer
c             This convention applies to all three parameters (route_suro, route_ifwo, and route_agwo)
c 
c	defid	deluid	route_suro	route_ifwo	route_agwo
	1	1000	1.000000	1.000000	1.000000
	1	2110	1.000000	1.000000	1.000000
	1	2120	1.000000	1.000000	1.000000
	1	2130	1.000000	1.000000	1.000000
	1	2210	1.000000	1.000000	1.000000
	1	2220	1.000000	1.000000	1.000000
	1	2230	1.000000	1.000000	1.000000
	1	2310	1.000000	1.000000	1.000000
	1	2320	1.000000	1.000000	1.000000
	1	2330	1.000000	1.000000	1.000000
	1	2410	1.000000	1.000000	1.000000
	1	2420	1.000000	1.000000	1.000000
	1	2430	1.000000	1.000000	1.000000
	1	3110	1.000000	1.000000	1.000000
	1	3120	1.000000	1.000000	1.000000
	1	3130	1.000000	1.000000	1.000000
	1	3210	1.000000	1.000000	1.000000
	1	3220	1.000000	1.000000	1.000000
	1	3230	1.000000	1.000000	1.000000
	1	3310	1.000000	1.000000	1.000000
	1	3320	1.000000	1.000000	1.000000
	1	3330	1.000000	1.000000	1.000000
	1	3410	1.000000	1.000000	1.000000
	1	3420	1.000000	1.000000	1.000000
	1	3430	1.000000	1.000000	1.000000
	1	4110	1.000000	1.000000	1.000000
	1	4120	1.000000	1.000000	1.000000
	1	4130	1.000000	1.000000	1.000000
	1	4210	1.000000	1.000000	1.000000
	1	4220	1.000000	1.000000	1.000000
	1	4230	1.000000	1.000000	1.000000
	1	4310	1.000000	1.000000	1.000000
	1	4320	1.000000	1.000000	1.000000
	1	4330	1.000000	1.000000	1.000000
	1	4410	1.000000	1.000000	1.000000
	1	4420	1.000000	1.000000	1.000000
	1	4430	1.000000	1.000000	1.000000
	1	5110	1.000000	1.000000	1.000000
	1	5120	1.000000	1.000000	1.000000
	1	5130	1.000000	1.000000	1.000000
	1	5210	1.000000	1.000000	1.000000
	1	5220	1.000000	1.000000	1.000000
	1	5230	1.000000	1.000000	1.000000
	1	5310	1.000000	1.000000	1.000000
	1	5320	1.000000	1.000000	1.000000
	1	5330	1.000000	1.000000	1.000000
	1	5410	1.000000	1.000000	1.000000
	1	5420	1.000000	1.000000	1.000000
	1	5430	1.000000	1.000000	1.000000
	1	6110	1.000000	1.000000	1.000000
	1	6120	1.000000	1.000000	1.000000
	1	6130	1.000000	1.000000	1.000000
	1	6210	1.000000	1.000000	1.000000
	1	6220	1.000000	1.000000	1.000000
	1	6230	1.000000	1.000000	1.000000
	1	6310	1.000000	1.000000	1.000000
	1	6320	1.000000	1.000000	1.000000
	1	6330	1.000000	1.000000	1.000000
	1	6410	1.000000	1.000000	1.000000
	1	6420	1.000000	1.000000	1.000000
	1	6430	1.000000	1.000000	1.000000
	1	7110	1.000000	1.000000	1.000000
	1	7120	1.000000	1.000000	1.000000
	1	7130	1.000000	1.000000	1.000000
	1	7210	1.000000	1.000000	1.000000
	1	7220	1.000000	1.000000	1.000000
	1	7230	1.000000	1.000000	1.000000
	1	7310	1.000000	1.000000	1.000000
	1	7320	1.000000	1.000000	1.000000
	1	7330	1.000000	1.000000	1.000000
	1	7410	1.000000	1.000000	1.000000
	1	7420	1.000000	1.000000	1.000000
	1	7430	1.000000	1.000000	1.000000
	1	8110	1.000000	1.000000	1.000000
	1	8120	1.000000	1.000000	1.000000
	1	8130	1.000000	1.000000	1.000000
	1	8210	1.000000	1.000000	1.000000
	1	8220	1.000000	1.000000	1.000000
	1	8230	1.000000	1.000000	1.000000
	1	8310	1.000000	1.000000	1.000000
	1	8320	1.000000	1.000000	1.000000
	1	8330	1.000000	1.000000	1.000000
	1	8410	1.000000	1.000000	1.000000
	1	8420	1.000000	1.000000	1.000000
	1	8430	1.000000	1.000000	1.000000
	1	9000	1.000000	1.000000	1.000000
	1	10110	1.000000	1.000000	1.000000
	1	10120	1.000000	1.000000	1.000000
	1	10130	1.000000	1.000000	1.000000
	1	10210	1.000000	1.000000	1.000000
	1	10220	1.000000	1.000000	1.000000
	1	10230	1.000000	1.000000	1.000000
	1	10310	1.000000	1.000000	1.000000
	1	10320	1.000000	1.000000	1.000000
	1	10330	1.000000	1.000000	1.000000
	1	10410	1.000000	1.000000	1.000000
	1	10420	1.000000	1.000000	1.000000
	1	10430	1.000000	1.000000	1.000000
c-----------------------------------------------------------------------------------------
c90  land use information
c 
c    subbasin   subbasin id
c    deluid     land use id
c    deluname   land use name
c    perimp     1 imperivous land (subsurface processes disabled)
c               2 pervious  land (subsurface processes activated)
c    area_ac    area (acres)
c    slsur      slope of overland flow plane (none)
c    lsur       length of overland flow plane (feet)
c 
c	subbasin	deluid	deluname	perimp	area_ac	slsur	lsur
	3879534	1000	Developed_Impervious-All-All-All	1	0.027159	0.150000	368.000000
	3879534	2110	Developed_Pervious-A-Low-All	2	0.000000	0.050000	573.000000
	3879534	2120	Developed_Pervious-A-Med-All	2	0.000000	0.150000	368.000000
	3879534	2130	Developed_Pervious-A-High-All	2	0.000000	0.350000	149.000000
	3879534	2210	Developed_Pervious-B-Low-All	2	0.000000	0.050000	573.000000
	3879534	2220	Developed_Pervious-B-Med-All	2	1.316674	0.120000	389.000000
	3879534	2230	Developed_Pervious-B-High-All	2	4.224706	0.280000	185.000000
	3879534	2310	Developed_Pervious-C-Low-All	2	2.445309	0.030000	594.000000
	3879534	2320	Developed_Pervious-C-Med-All	2	10.004612	0.100000	418.000000
	3879534	2330	Developed_Pervious-C-High-All	2	8.447650	0.210000	255.000000
	3879534	2410	Developed_Pervious-D-Low-All	2	0.667059	0.030000	608.000000
	3879534	2420	Developed_Pervious-D-Med-All	2	2.890015	0.090000	446.000000
	3879534	2430	Developed_Pervious-D-High-All	2	0.000000	0.350000	149.000000
	3879534	3110	Barren-A-Low-All	2	0.000000	0.050000	573.000000
	3879534	3120	Barren-A-Med-All	2	0.000000	0.150000	368.000000
	3879534	3130	Barren-A-High-All	2	0.000000	0.350000	149.000000
	3879534	3210	Barren-B-Low-All	2	0.000000	0.050000	573.000000
	3879534	3220	Barren-B-Med-All	2	0.000000	0.150000	368.000000
	3879534	3230	Barren-B-High-All	2	0.000000	0.350000	149.000000
	3879534	3310	Barren-C-Low-All	2	0.000000	0.050000	573.000000
	3879534	3320	Barren-C-Med-All	2	0.000000	0.150000	368.000000
	3879534	3330	Barren-C-High-All	2	0.000000	0.350000	149.000000
	3879534	3410	Barren-D-Low-All	2	0.000000	0.050000	573.000000
	3879534	3420	Barren-D-Med-All	2	0.000000	0.150000	368.000000
	3879534	3430	Barren-D-High-All	2	0.000000	0.350000	149.000000
	3879534	4110	Forest-A-Low-All	2	0.000000	0.050000	573.000000
	3879534	4120	Forest-A-Med-All	2	0.000000	0.150000	368.000000
	3879534	4130	Forest-A-High-All	2	0.000000	0.350000	149.000000
	3879534	4210	Forest-B-Low-All	2	0.667182	0.040000	580.000000
	3879534	4220	Forest-B-Med-All	2	13.566031	0.110000	411.000000
	3879534	4230	Forest-B-High-All	2	331.811779	0.470000	121.000000
	3879534	4310	Forest-C-Low-All	2	1.779152	0.030000	601.000000
	3879534	4320	Forest-C-Med-All	2	19.793062	0.110000	411.000000
	3879534	4330	Forest-C-High-All	2	217.501287	0.380000	142.000000
	3879534	4410	Forest-D-Low-All	2	0.444788	0.040000	587.000000
	3879534	4420	Forest-D-Med-All	2	3.780697	0.110000	404.000000
	3879534	4430	Forest-D-High-All	2	19.125880	0.280000	192.000000
	3879534	5110	Scrub-A-Low-All	2	0.000000	0.050000	573.000000
	3879534	5120	Scrub-A-Med-All	2	0.000000	0.150000	368.000000
	3879534	5130	Scrub-A-High-All	2	0.000000	0.350000	149.000000
	3879534	5210	Scrub-B-Low-All	2	0.000000	0.050000	573.000000
	3879534	5220	Scrub-B-Med-All	2	3.113515	0.100000	425.000000
	3879534	5230	Scrub-B-High-All	2	14.900395	0.360000	149.000000
	3879534	5310	Scrub-C-Low-All	2	2.891121	0.040000	587.000000
	3879534	5320	Scrub-C-Med-All	2	14.455607	0.100000	432.000000
	3879534	5330	Scrub-C-High-All	2	86.288854	0.340000	156.000000
	3879534	5410	Scrub-D-Low-All	2	2.446333	0.040000	573.000000
	3879534	5420	Scrub-D-Med-All	2	38.696548	0.110000	411.000000
	3879534	5430	Scrub-D-High-All	2	43.811609	0.240000	227.000000
	3879534	6110	Grassland-A-Low-All	2	0.000000	0.050000	573.000000
	3879534	6120	Grassland-A-Med-All	2	0.000000	0.150000	368.000000
	3879534	6130	Grassland-A-High-All	2	0.000000	0.350000	149.000000
	3879534	6210	Grassland-B-Low-All	2	0.000000	0.050000	573.000000
	3879534	6220	Grassland-B-Med-All	2	0.000000	0.150000	368.000000
	3879534	6230	Grassland-B-High-All	2	0.444788	0.250000	213.000000
	3879534	6310	Grassland-C-Low-All	2	0.444788	0.030000	615.000000
	3879534	6320	Grassland-C-Med-All	2	6.004637	0.100000	432.000000
	3879534	6330	Grassland-C-High-All	2	5.782243	0.270000	199.000000
	3879534	6410	Grassland-D-Low-All	2	0.000000	0.050000	573.000000
	3879534	6420	Grassland-D-Med-All	2	0.000000	0.150000	368.000000
	3879534	6430	Grassland-D-High-All	2	0.000000	0.350000	149.000000
	3879534	7110	Pasture-A-Low-All	2	0.000000	0.050000	573.000000
	3879534	7120	Pasture-A-Med-All	2	0.000000	0.150000	368.000000
	3879534	7130	Pasture-A-High-All	2	0.000000	0.350000	149.000000
	3879534	7210	Pasture-B-Low-All	2	0.000000	0.050000	573.000000
	3879534	7220	Pasture-B-Med-All	2	0.000000	0.150000	368.000000
	3879534	7230	Pasture-B-High-All	2	0.889576	0.340000	156.000000
	3879534	7310	Pasture-C-Low-All	2	1.556758	0.030000	587.000000
	3879534	7320	Pasture-C-Med-All	2	2.001546	0.080000	460.000000
	3879534	7330	Pasture-C-High-All	2	0.889576	0.330000	164.000000
	3879534	7410	Pasture-D-Low-All	2	0.000000	0.050000	573.000000
	3879534	7420	Pasture-D-Med-All	2	0.000000	0.150000	368.000000
	3879534	7430	Pasture-D-High-All	2	0.000000	0.350000	149.000000
	3879534	8110	Agriculture-A-Low-All	2	0.000000	0.050000	573.000000
	3879534	8120	Agriculture-A-Med-All	2	0.000000	0.150000	368.000000
	3879534	8130	Agriculture-A-High-All	2	0.000000	0.350000	149.000000
	3879534	8210	Agriculture-B-Low-All	2	0.189035	0.020000	636.000000
	3879534	8220	Agriculture-B-Med-All	2	0.567105	0.120000	396.000000
	3879534	8230	Agriculture-B-High-All	2	1.701314	0.510000	114.000000
	3879534	8310	Agriculture-C-Low-All	2	0.189035	0.030000	608.000000
	3879534	8320	Agriculture-C-Med-All	2	1.512279	0.080000	467.000000
	3879534	8330	Agriculture-C-High-All	2	0.756139	0.530000	114.000000
	3879534	8410	Agriculture-D-Low-All	2	0.000000	0.050000	573.000000
	3879534	8420	Agriculture-D-Med-All	2	0.000000	0.150000	368.000000
	3879534	8430	Agriculture-D-High-All	2	0.000000	0.350000	149.000000
	3879534	9000	Water-All-All-All	2	0.000000	0.350000	149.000000
	3879534	10110	Irrigation-A-Low-All	2	0.000000	0.050000	573.000000
	3879534	10120	Irrigation-A-Med-All	2	0.000000	0.150000	368.000000
	3879534	10130	Irrigation-A-High-All	2	0.000000	0.350000	149.000000
	3879534	10210	Irrigation-B-Low-All	2	0.033359	0.050000	573.000000
	3879534	10220	Irrigation-B-Med-All	2	0.100077	0.150000	368.000000
	3879534	10230	Irrigation-B-High-All	2	0.300232	0.350000	149.000000
	3879534	10310	Irrigation-C-Low-All	2	0.033359	0.050000	573.000000
	3879534	10320	Irrigation-C-Med-All	2	0.266873	0.150000	368.000000
	3879534	10330	Irrigation-C-High-All	2	0.133436	0.350000	149.000000
	3879534	10410	Irrigation-D-Low-All	2	0.000000	0.050000	573.000000
	3879534	10420	Irrigation-D-Med-All	2	0.000000	0.150000	368.000000
	3879534	10430	Irrigation-D-High-All	2	0.000000	0.350000	149.000000
	3879536	1000	Developed_Impervious-All-All-All	1	0.000022	0.060000	516.000000
	3879536	2110	Developed_Pervious-A-Low-All	2	0.000000	0.050000	573.000000
	3879536	2120	Developed_Pervious-A-Med-All	2	0.000000	0.150000	368.000000
	3879536	2130	Developed_Pervious-A-High-All	2	0.000000	0.270000	199.000000
	3879536	2210	Developed_Pervious-B-Low-All	2	0.000000	0.050000	573.000000
	3879536	2220	Developed_Pervious-B-Med-All	2	0.000000	0.150000	368.000000
	3879536	2230	Developed_Pervious-B-High-All	2	0.000000	0.270000	199.000000
	3879536	2310	Developed_Pervious-C-Low-All	2	0.000000	0.050000	573.000000
	3879536	2320	Developed_Pervious-C-Med-All	2	0.222372	0.060000	516.000000
	3879536	2330	Developed_Pervious-C-High-All	2	0.000000	0.270000	199.000000
	3879536	2410	Developed_Pervious-D-Low-All	2	0.000000	0.050000	573.000000
	3879536	2420	Developed_Pervious-D-Med-All	2	0.000000	0.150000	368.000000
	3879536	2430	Developed_Pervious-D-High-All	2	0.000000	0.270000	199.000000
	3879536	3110	Barren-A-Low-All	2	0.000000	0.050000	573.000000
	3879536	3120	Barren-A-Med-All	2	0.000000	0.150000	368.000000
	3879536	3130	Barren-A-High-All	2	0.000000	0.270000	199.000000
	3879536	3210	Barren-B-Low-All	2	0.000000	0.050000	573.000000
	3879536	3220	Barren-B-Med-All	2	0.000000	0.150000	368.000000
	3879536	3230	Barren-B-High-All	2	0.000000	0.270000	199.000000
	3879536	3310	Barren-C-Low-All	2	0.000000	0.050000	573.000000
	3879536	3320	Barren-C-Med-All	2	0.000000	0.150000	368.000000
	3879536	3330	Barren-C-High-All	2	0.000000	0.270000	199.000000
	3879536	3410	Barren-D-Low-All	2	0.000000	0.050000	573.000000
	3879536	3420	Barren-D-Med-All	2	0.000000	0.150000	368.000000
	3879536	3430	Barren-D-High-All	2	0.000000	0.270000	199.000000
	3879536	4110	Forest-A-Low-All	2	0.000000	0.050000	573.000000
	3879536	4120	Forest-A-Med-All	2	0.000000	0.150000	368.000000
	3879536	4130	Forest-A-High-All	2	0.000000	0.270000	199.000000
	3879536	4210	Forest-B-Low-All	2	0.000000	0.050000	573.000000
	3879536	4220	Forest-B-Med-All	2	1.779152	0.100000	432.000000
	3879536	4230	Forest-B-High-All	2	8.450970	0.520000	114.000000
	3879536	4310	Forest-C-Low-All	2	0.222394	0.040000	587.000000
	3879536	4320	Forest-C-Med-All	2	7.116607	0.110000	418.000000
	3879536	4330	Forest-C-High-All	2	3.558303	0.200000	284.000000
	3879536	4410	Forest-D-Low-All	2	0.000000	0.050000	573.000000
	3879536	4420	Forest-D-Med-All	2	0.000000	0.150000	368.000000
	3879536	4430	Forest-D-High-All	2	0.000000	0.270000	199.000000
	3879536	5110	Scrub-A-Low-All	2	0.000000	0.050000	573.000000
	3879536	5120	Scrub-A-Med-All	2	0.000000	0.150000	368.000000
	3879536	5130	Scrub-A-High-All	2	0.000000	0.270000	199.000000
	3879536	5210	Scrub-B-Low-All	2	0.000000	0.050000	573.000000
	3879536	5220	Scrub-B-Med-All	2	0.000000	0.150000	368.000000
	3879536	5230	Scrub-B-High-All	2	0.000000	0.270000	199.000000
	3879536	5310	Scrub-C-Low-All	2	0.222394	0.030000	594.000000
	3879536	5320	Scrub-C-Med-All	2	1.111970	0.080000	467.000000
	3879536	5330	Scrub-C-High-All	2	0.000000	0.270000	199.000000
	3879536	5410	Scrub-D-Low-All	2	0.000000	0.050000	573.000000
	3879536	5420	Scrub-D-Med-All	2	0.000000	0.150000	368.000000
	3879536	5430	Scrub-D-High-All	2	0.000000	0.270000	199.000000
	3879536	6110	Grassland-A-Low-All	2	0.000000	0.050000	573.000000
	3879536	6120	Grassland-A-Med-All	2	0.000000	0.150000	368.000000
	3879536	6130	Grassland-A-High-All	2	0.000000	0.270000	199.000000
	3879536	6210	Grassland-B-Low-All	2	0.000000	0.050000	573.000000
	3879536	6220	Grassland-B-Med-All	2	0.000000	0.150000	368.000000
	3879536	6230	Grassland-B-High-All	2	0.000000	0.270000	199.000000
	3879536	6310	Grassland-C-Low-All	2	0.000000	0.050000	573.000000
	3879536	6320	Grassland-C-Med-All	2	0.000000	0.150000	368.000000
	3879536	6330	Grassland-C-High-All	2	0.000000	0.270000	199.000000
	3879536	6410	Grassland-D-Low-All	2	0.000000	0.050000	573.000000
	3879536	6420	Grassland-D-Med-All	2	0.000000	0.150000	368.000000
	3879536	6430	Grassland-D-High-All	2	0.000000	0.270000	199.000000
	3879536	7110	Pasture-A-Low-All	2	0.000000	0.050000	573.000000
	3879536	7120	Pasture-A-Med-All	2	0.000000	0.150000	368.000000
	3879536	7130	Pasture-A-High-All	2	0.000000	0.270000	199.000000
	3879536	7210	Pasture-B-Low-All	2	0.000000	0.050000	573.000000
	3879536	7220	Pasture-B-Med-All	2	0.000000	0.150000	368.000000
	3879536	7230	Pasture-B-High-All	2	0.000000	0.270000	199.000000
	3879536	7310	Pasture-C-Low-All	2	0.000000	0.050000	573.000000
	3879536	7320	Pasture-C-Med-All	2	0.444788	0.080000	474.000000
	3879536	7330	Pasture-C-High-All	2	0.000000	0.270000	199.000000
	3879536	7410	Pasture-D-Low-All	2	0.000000	0.050000	573.000000
	3879536	7420	Pasture-D-Med-All	2	0.000000	0.150000	368.000000
	3879536	7430	Pasture-D-High-All	2	0.000000	0.270000	199.000000
	3879536	8110	Agriculture-A-Low-All	2	0.000000	0.050000	573.000000
	3879536	8120	Agriculture-A-Med-All	2	0.000000	0.150000	368.000000
	3879536	8130	Agriculture-A-High-All	2	0.000000	0.270000	199.000000
	3879536	8210	Agriculture-B-Low-All	2	0.000000	0.050000	573.000000
	3879536	8220	Agriculture-B-Med-All	2	0.000000	0.150000	368.000000
	3879536	8230	Agriculture-B-High-All	2	0.000000	0.270000	199.000000
	3879536	8310	Agriculture-C-Low-All	2	0.000000	0.050000	573.000000
	3879536	8320	Agriculture-C-Med-All	2	0.000000	0.150000	368.000000
	3879536	8330	Agriculture-C-High-All	2	0.000000	0.270000	199.000000
	3879536	8410	Agriculture-D-Low-All	2	0.000000	0.050000	573.000000
	3879536	8420	Agriculture-D-Med-All	2	0.000000	0.150000	368.000000
	3879536	8430	Agriculture-D-High-All	2	0.000000	0.270000	199.000000
	3879536	9000	Water-All-All-All	2	0.000000	0.270000	199.000000
	3879536	10110	Irrigation-A-Low-All	2	0.000000	0.050000	573.000000
	3879536	10120	Irrigation-A-Med-All	2	0.000000	0.150000	368.000000
	3879536	10130	Irrigation-A-High-All	2	0.000000	0.270000	199.000000
	3879536	10210	Irrigation-B-Low-All	2	0.000000	0.050000	573.000000
	3879536	10220	Irrigation-B-Med-All	2	0.000000	0.150000	368.000000
	3879536	10230	Irrigation-B-High-All	2	0.000000	0.270000	199.000000
	3879536	10310	Irrigation-C-Low-All	2	0.000000	0.050000	573.000000
	3879536	10320	Irrigation-C-Med-All	2	0.000000	0.150000	368.000000
	3879536	10330	Irrigation-C-High-All	2	0.000000	0.270000	199.000000
	3879536	10410	Irrigation-D-Low-All	2	0.000000	0.050000	573.000000
	3879536	10420	Irrigation-D-Med-All	2	0.000000	0.150000	368.000000
	3879536	10430	Irrigation-D-High-All	2	0.000000	0.270000	199.000000
	3879552	1000	Developed_Impervious-All-All-All	1	0.413994	0.150000	368.000000
	3879552	2110	Developed_Pervious-A-Low-All	2	0.000000	0.050000	573.000000
	3879552	2120	Developed_Pervious-A-Med-All	2	0.000000	0.150000	368.000000
	3879552	2130	Developed_Pervious-A-High-All	2	0.000000	0.310000	171.000000
	3879552	2210	Developed_Pervious-B-Low-All	2	2.888828	0.030000	601.000000
	3879552	2220	Developed_Pervious-B-Med-All	2	9.286011	0.090000	446.000000
	3879552	2230	Developed_Pervious-B-High-All	2	4.668496	0.290000	185.000000
	3879552	2310	Developed_Pervious-C-Low-All	2	0.444616	0.030000	594.000000
	3879552	2320	Developed_Pervious-C-Med-All	2	1.998736	0.100000	432.000000
	3879552	2330	Developed_Pervious-C-High-All	2	8.204235	0.300000	178.000000
	3879552	2410	Developed_Pervious-D-Low-All	2	4.329281	0.030000	608.000000
	3879552	2420	Developed_Pervious-D-Med-All	2	9.665256	0.090000	439.000000
	3879552	2430	Developed_Pervious-D-High-All	2	3.246520	0.200000	262.000000
	3879552	3110	Barren-A-Low-All	2	0.000000	0.050000	573.000000
	3879552	3120	Barren-A-Med-All	2	0.000000	0.150000	368.000000
	3879552	3130	Barren-A-High-All	2	0.000000	0.310000	171.000000
	3879552	3210	Barren-B-Low-All	2	0.000000	0.050000	573.000000
	3879552	3220	Barren-B-Med-All	2	0.000000	0.150000	368.000000
	3879552	3230	Barren-B-High-All	2	0.000000	0.310000	171.000000
	3879552	3310	Barren-C-Low-All	2	0.000000	0.050000	573.000000
	3879552	3320	Barren-C-Med-All	2	0.000000	0.150000	368.000000
	3879552	3330	Barren-C-High-All	2	0.000000	0.310000	171.000000
	3879552	3410	Barren-D-Low-All	2	0.000000	0.050000	573.000000
	3879552	3420	Barren-D-Med-All	2	0.000000	0.150000	368.000000
	3879552	3430	Barren-D-High-All	2	0.000000	0.310000	171.000000
	3879552	4110	Forest-A-Low-All	2	0.000000	0.050000	573.000000
	3879552	4120	Forest-A-Med-All	2	0.000000	0.150000	368.000000
	3879552	4130	Forest-A-High-All	2	0.000000	0.310000	171.000000
	3879552	4210	Forest-B-Low-All	2	4.670273	0.040000	587.000000
	3879552	4220	Forest-B-Med-All	2	23.351365	0.110000	411.000000
	3879552	4230	Forest-B-High-All	2	408.315299	0.470000	121.000000
	3879552	4310	Forest-C-Low-All	2	5.115061	0.030000	601.000000
	3879552	4320	Forest-C-Med-All	2	42.922033	0.120000	396.000000
	3879552	4330	Forest-C-High-All	2	570.662885	0.360000	149.000000
	3879552	4410	Forest-D-Low-All	2	0.889576	0.040000	580.000000
	3879552	4420	Forest-D-Med-All	2	8.228576	0.120000	382.000000
	3879552	4430	Forest-D-High-All	2	105.192340	0.290000	185.000000
	3879552	5110	Scrub-A-Low-All	2	0.000000	0.050000	573.000000
	3879552	5120	Scrub-A-Med-All	2	0.000000	0.150000	368.000000
	3879552	5130	Scrub-A-High-All	2	0.000000	0.310000	171.000000
	3879552	5210	Scrub-B-Low-All	2	12.898849	0.040000	587.000000
	3879552	5220	Scrub-B-Med-All	2	38.696548	0.100000	425.000000
	3879552	5230	Scrub-B-High-All	2	88.290400	0.300000	178.000000
	3879552	5310	Scrub-C-Low-All	2	5.782243	0.030000	615.000000
	3879552	5320	Scrub-C-Med-All	2	31.357547	0.110000	411.000000
	3879552	5330	Scrub-C-High-All	2	93.850248	0.300000	178.000000
	3879552	5410	Scrub-D-Low-All	2	7.339000	0.030000	594.000000
	3879552	5420	Scrub-D-Med-All	2	75.169156	0.110000	411.000000
	3879552	5430	Scrub-D-High-All	2	220.614802	0.260000	206.000000
	3879552	6110	Grassland-A-Low-All	2	0.000000	0.050000	573.000000
	3879552	6120	Grassland-A-Med-All	2	0.000000	0.150000	368.000000
	3879552	6130	Grassland-A-High-All	2	0.000000	0.310000	171.000000
	3879552	6210	Grassland-B-Low-All	2	8.228576	0.040000	580.000000
	3879552	6220	Grassland-B-Med-All	2	15.122789	0.090000	439.000000
	3879552	6230	Grassland-B-High-All	2	7.339000	0.220000	241.000000
	3879552	6310	Grassland-C-Low-All	2	0.667182	0.040000	573.000000
	3879552	6320	Grassland-C-Med-All	2	17.346728	0.100000	425.000000
	3879552	6330	Grassland-C-High-All	2	21.127426	0.270000	199.000000
	3879552	6410	Grassland-D-Low-All	2	0.000000	0.050000	573.000000
	3879552	6420	Grassland-D-Med-All	2	2.223940	0.110000	396.000000
	3879552	6430	Grassland-D-High-All	2	11.342092	0.260000	206.000000
	3879552	7110	Pasture-A-Low-All	2	0.000000	0.050000	573.000000
	3879552	7120	Pasture-A-Med-All	2	0.000000	0.150000	368.000000
	3879552	7130	Pasture-A-High-All	2	0.000000	0.310000	171.000000
	3879552	7210	Pasture-B-Low-All	2	3.780697	0.040000	587.000000
	3879552	7220	Pasture-B-Med-All	2	7.116607	0.090000	439.000000
	3879552	7230	Pasture-B-High-All	2	3.335909	0.220000	241.000000
	3879552	7310	Pasture-C-Low-All	2	0.444788	0.050000	573.000000
	3879552	7320	Pasture-C-Med-All	2	2.446333	0.100000	432.000000
	3879552	7330	Pasture-C-High-All	2	6.671819	0.280000	192.000000
	3879552	7410	Pasture-D-Low-All	2	0.000000	0.050000	573.000000
	3879552	7420	Pasture-D-Med-All	2	0.889576	0.120000	382.000000
	3879552	7430	Pasture-D-High-All	2	2.223940	0.230000	234.000000
	3879552	8110	Agriculture-A-Low-All	2	0.000000	0.050000	573.000000
	3879552	8120	Agriculture-A-Med-All	2	0.000000	0.150000	368.000000
	3879552	8130	Agriculture-A-High-All	2	0.000000	0.310000	171.000000
	3879552	8210	Agriculture-B-Low-All	2	2.457453	0.040000	587.000000
	3879552	8220	Agriculture-B-Med-All	2	4.536837	0.100000	432.000000
	3879552	8230	Agriculture-B-High-All	2	1.701314	0.400000	135.000000
	3879552	8310	Agriculture-C-Low-All	2	0.189035	0.040000	573.000000
	3879552	8320	Agriculture-C-Med-All	2	0.567105	0.090000	453.000000
	3879552	8330	Agriculture-C-High-All	2	1.512279	0.290000	185.000000
	3879552	8410	Agriculture-D-Low-All	2	0.000000	0.050000	573.000000
	3879552	8420	Agriculture-D-Med-All	2	1.890349	0.140000	368.000000
	3879552	8430	Agriculture-D-High-All	2	5.292976	0.230000	234.000000
	3879552	9000	Water-All-All-All	2	1.111970	0.040000	580.000000
	3879552	10110	Irrigation-A-Low-All	2	0.000000	0.050000	573.000000
	3879552	10120	Irrigation-A-Med-All	2	0.000000	0.150000	368.000000
	3879552	10130	Irrigation-A-High-All	2	0.000000	0.310000	171.000000
	3879552	10210	Irrigation-B-Low-All	2	0.433668	0.050000	573.000000
	3879552	10220	Irrigation-B-Med-All	2	0.800618	0.150000	368.000000
	3879552	10230	Irrigation-B-High-All	2	0.300232	0.310000	171.000000
	3879552	10310	Irrigation-C-Low-All	2	0.033359	0.050000	573.000000
	3879552	10320	Irrigation-C-Med-All	2	0.100077	0.150000	368.000000
	3879552	10330	Irrigation-C-High-All	2	0.266873	0.310000	171.000000
	3879552	10410	Irrigation-D-Low-All	2	0.000000	0.050000	573.000000
	3879552	10420	Irrigation-D-Med-All	2	0.333591	0.150000	368.000000
	3879552	10430	Irrigation-D-High-All	2	0.934055	0.310000	171.000000
	3879554	1000	Developed_Impervious-All-All-All	1	0.026566	0.260000	206.000000
	3879554	2110	Developed_Pervious-A-Low-All	2	0.000000	0.050000	573.000000
	3879554	2120	Developed_Pervious-A-Med-All	2	0.000000	0.150000	368.000000
	3879554	2130	Developed_Pervious-A-High-All	2	0.000000	0.360000	149.000000
	3879554	2210	Developed_Pervious-B-Low-All	2	0.000000	0.050000	573.000000
	3879554	2220	Developed_Pervious-B-Med-All	2	0.000000	0.150000	368.000000
	3879554	2230	Developed_Pervious-B-High-All	2	0.000000	0.360000	149.000000
	3879554	2310	Developed_Pervious-C-Low-All	2	0.000000	0.050000	573.000000
	3879554	2320	Developed_Pervious-C-Med-All	2	0.641066	0.070000	488.000000
	3879554	2330	Developed_Pervious-C-High-All	2	1.333913	0.350000	156.000000
	3879554	2410	Developed_Pervious-D-Low-All	2	0.000000	0.050000	573.000000
	3879554	2420	Developed_Pervious-D-Med-All	2	0.000000	0.150000	368.000000
	3879554	2430	Developed_Pervious-D-High-All	2	0.000000	0.360000	149.000000
	3879554	3110	Barren-A-Low-All	2	0.000000	0.050000	573.000000
	3879554	3120	Barren-A-Med-All	2	0.000000	0.150000	368.000000
	3879554	3130	Barren-A-High-All	2	0.000000	0.360000	149.000000
	3879554	3210	Barren-B-Low-All	2	0.000000	0.050000	573.000000
	3879554	3220	Barren-B-Med-All	2	0.000000	0.150000	368.000000
	3879554	3230	Barren-B-High-All	2	0.000000	0.360000	149.000000
	3879554	3310	Barren-C-Low-All	2	0.000000	0.050000	573.000000
	3879554	3320	Barren-C-Med-All	2	0.000000	0.150000	368.000000
	3879554	3330	Barren-C-High-All	2	0.000000	0.360000	149.000000
	3879554	3410	Barren-D-Low-All	2	0.000000	0.050000	573.000000
	3879554	3420	Barren-D-Med-All	2	0.000000	0.150000	368.000000
	3879554	3430	Barren-D-High-All	2	0.000000	0.360000	149.000000
	3879554	4110	Forest-A-Low-All	2	0.000000	0.050000	573.000000
	3879554	4120	Forest-A-Med-All	2	0.000000	0.150000	368.000000
	3879554	4130	Forest-A-High-All	2	0.000000	0.360000	149.000000
	3879554	4210	Forest-B-Low-All	2	0.000000	0.050000	573.000000
	3879554	4220	Forest-B-Med-All	2	0.000000	0.150000	368.000000
	3879554	4230	Forest-B-High-All	2	0.000000	0.360000	149.000000
	3879554	4310	Forest-C-Low-All	2	0.667182	0.010000	658.000000
	3879554	4320	Forest-C-Med-All	2	0.000000	0.150000	368.000000
	3879554	4330	Forest-C-High-All	2	0.000000	0.360000	149.000000
	3879554	4410	Forest-D-Low-All	2	0.000000	0.050000	573.000000
	3879554	4420	Forest-D-Med-All	2	0.000000	0.150000	368.000000
	3879554	4430	Forest-D-High-All	2	0.000000	0.360000	149.000000
	3879554	5110	Scrub-A-Low-All	2	0.000000	0.050000	573.000000
	3879554	5120	Scrub-A-Med-All	2	0.000000	0.150000	368.000000
	3879554	5130	Scrub-A-High-All	2	0.000000	0.360000	149.000000
	3879554	5210	Scrub-B-Low-All	2	0.000000	0.050000	573.000000
	3879554	5220	Scrub-B-Med-All	2	0.222394	0.120000	382.000000
	3879554	5230	Scrub-B-High-All	2	3.780697	0.260000	206.000000
	3879554	5310	Scrub-C-Low-All	2	1.111970	0.040000	587.000000
	3879554	5320	Scrub-C-Med-All	2	2.891121	0.090000	439.000000
	3879554	5330	Scrub-C-High-All	2	31.802335	0.430000	128.000000
	3879554	5410	Scrub-D-Low-All	2	0.000000	0.050000	573.000000
	3879554	5420	Scrub-D-Med-All	2	0.000000	0.150000	368.000000
	3879554	5430	Scrub-D-High-All	2	1.556758	0.240000	227.000000
	3879554	6110	Grassland-A-Low-All	2	0.000000	0.050000	573.000000
	3879554	6120	Grassland-A-Med-All	2	0.000000	0.150000	368.000000
	3879554	6130	Grassland-A-High-All	2	0.000000	0.360000	149.000000
	3879554	6210	Grassland-B-Low-All	2	0.000000	0.050000	573.000000
	3879554	6220	Grassland-B-Med-All	2	0.222394	0.120000	389.000000
	3879554	6230	Grassland-B-High-All	2	6.227031	0.260000	206.000000
	3879554	6310	Grassland-C-Low-All	2	0.222394	0.040000	580.000000
	3879554	6320	Grassland-C-Med-All	2	0.889576	0.110000	404.000000
	3879554	6330	Grassland-C-High-All	2	17.569122	0.440000	121.000000
	3879554	6410	Grassland-D-Low-All	2	0.000000	0.050000	573.000000
	3879554	6420	Grassland-D-Med-All	2	0.222394	0.130000	382.000000
	3879554	6430	Grassland-D-High-All	2	4.003091	0.350000	156.000000
	3879554	7110	Pasture-A-Low-All	2	0.000000	0.050000	573.000000
	3879554	7120	Pasture-A-Med-All	2	0.000000	0.150000	368.000000
	3879554	7130	Pasture-A-High-All	2	0.000000	0.360000	149.000000
	3879554	7210	Pasture-B-Low-All	2	0.000000	0.050000	573.000000
	3879554	7220	Pasture-B-Med-All	2	0.000000	0.150000	368.000000
	3879554	7230	Pasture-B-High-All	2	0.000000	0.360000	149.000000
	3879554	7310	Pasture-C-Low-All	2	0.222394	0.030000	615.000000
	3879554	7320	Pasture-C-Med-All	2	0.667182	0.080000	467.000000
	3879554	7330	Pasture-C-High-All	2	4.225485	0.390000	135.000000
	3879554	7410	Pasture-D-Low-All	2	0.000000	0.050000	573.000000
	3879554	7420	Pasture-D-Med-All	2	0.000000	0.150000	368.000000
	3879554	7430	Pasture-D-High-All	2	1.111970	0.480000	121.000000
	3879554	8110	Agriculture-A-Low-All	2	0.000000	0.050000	573.000000
	3879554	8120	Agriculture-A-Med-All	2	0.000000	0.150000	368.000000
	3879554	8130	Agriculture-A-High-All	2	0.000000	0.360000	149.000000
	3879554	8210	Agriculture-B-Low-All	2	0.000000	0.050000	573.000000
	3879554	8220	Agriculture-B-Med-All	2	0.000000	0.150000	368.000000
	3879554	8230	Agriculture-B-High-All	2	0.000000	0.360000	149.000000
	3879554	8310	Agriculture-C-Low-All	2	0.222394	0.030000	594.000000
	3879554	8320	Agriculture-C-Med-All	2	0.000000	0.150000	368.000000
	3879554	8330	Agriculture-C-High-All	2	0.000000	0.360000	149.000000
	3879554	8410	Agriculture-D-Low-All	2	0.000000	0.050000	573.000000
	3879554	8420	Agriculture-D-Med-All	2	0.000000	0.150000	368.000000
	3879554	8430	Agriculture-D-High-All	2	0.000000	0.360000	149.000000
	3879554	9000	Water-All-All-All	2	0.000000	0.360000	149.000000
	3879554	10110	Irrigation-A-Low-All	2	0.000000	0.050000	573.000000
	3879554	10120	Irrigation-A-Med-All	2	0.000000	0.150000	368.000000
	3879554	10130	Irrigation-A-High-All	2	0.000000	0.360000	149.000000
	3879554	10210	Irrigation-B-Low-All	2	0.000000	0.050000	573.000000
	3879554	10220	Irrigation-B-Med-All	2	0.000000	0.150000	368.000000
	3879554	10230	Irrigation-B-High-All	2	0.000000	0.360000	149.000000
	3879554	10310	Irrigation-C-Low-All	2	0.000000	0.050000	573.000000
	3879554	10320	Irrigation-C-Med-All	2	0.000000	0.150000	368.000000
	3879554	10330	Irrigation-C-High-All	2	0.000000	0.360000	149.000000
	3879554	10410	Irrigation-D-Low-All	2	0.000000	0.050000	573.000000
	3879554	10420	Irrigation-D-Med-All	2	0.000000	0.150000	368.000000
	3879554	10430	Irrigation-D-High-All	2	0.000000	0.360000	149.000000
	3879556	1000	Developed_Impervious-All-All-All	1	0.000111	0.290000	185.000000
	3879556	2110	Developed_Pervious-A-Low-All	2	0.000000	0.050000	573.000000
	3879556	2120	Developed_Pervious-A-Med-All	2	0.000000	0.150000	368.000000
	3879556	2130	Developed_Pervious-A-High-All	2	0.000000	0.270000	199.000000
	3879556	2210	Developed_Pervious-B-Low-All	2	0.000000	0.050000	573.000000
	3879556	2220	Developed_Pervious-B-Med-All	2	0.000000	0.150000	368.000000
	3879556	2230	Developed_Pervious-B-High-All	2	0.222372	0.490000	121.000000
	3879556	2310	Developed_Pervious-C-Low-All	2	0.000000	0.050000	573.000000
	3879556	2320	Developed_Pervious-C-Med-All	2	0.222372	0.070000	516.000000
	3879556	2330	Developed_Pervious-C-High-All	2	0.667115	0.290000	178.000000
	3879556	2410	Developed_Pervious-D-Low-All	2	0.000000	0.050000	573.000000
	3879556	2420	Developed_Pervious-D-Med-All	2	0.000000	0.150000	368.000000
	3879556	2430	Developed_Pervious-D-High-All	2	0.000000	0.270000	199.000000
	3879556	3110	Barren-A-Low-All	2	0.000000	0.050000	573.000000
	3879556	3120	Barren-A-Med-All	2	0.000000	0.150000	368.000000
	3879556	3130	Barren-A-High-All	2	0.000000	0.270000	199.000000
	3879556	3210	Barren-B-Low-All	2	0.000000	0.050000	573.000000
	3879556	3220	Barren-B-Med-All	2	0.000000	0.150000	368.000000
	3879556	3230	Barren-B-High-All	2	0.000000	0.270000	199.000000
	3879556	3310	Barren-C-Low-All	2	0.000000	0.050000	573.000000
	3879556	3320	Barren-C-Med-All	2	0.000000	0.150000	368.000000
	3879556	3330	Barren-C-High-All	2	0.000000	0.270000	199.000000
	3879556	3410	Barren-D-Low-All	2	0.000000	0.050000	573.000000
	3879556	3420	Barren-D-Med-All	2	0.000000	0.150000	368.000000
	3879556	3430	Barren-D-High-All	2	0.000000	0.270000	199.000000
	3879556	4110	Forest-A-Low-All	2	0.000000	0.050000	573.000000
	3879556	4120	Forest-A-Med-All	2	0.000000	0.150000	368.000000
	3879556	4130	Forest-A-High-All	2	0.000000	0.270000	199.000000
	3879556	4210	Forest-B-Low-All	2	0.000000	0.050000	573.000000
	3879556	4220	Forest-B-Med-All	2	0.000000	0.150000	368.000000
	3879556	4230	Forest-B-High-All	2	0.000000	0.270000	199.000000
	3879556	4310	Forest-C-Low-All	2	0.000000	0.050000	573.000000
	3879556	4320	Forest-C-Med-All	2	0.000000	0.150000	368.000000
	3879556	4330	Forest-C-High-All	2	2.001546	0.470000	121.000000
	3879556	4410	Forest-D-Low-All	2	0.000000	0.050000	573.000000
	3879556	4420	Forest-D-Med-All	2	0.000000	0.150000	368.000000
	3879556	4430	Forest-D-High-All	2	0.000000	0.270000	199.000000
	3879556	5110	Scrub-A-Low-All	2	0.000000	0.050000	573.000000
	3879556	5120	Scrub-A-Med-All	2	0.000000	0.150000	368.000000
	3879556	5130	Scrub-A-High-All	2	0.000000	0.270000	199.000000
	3879556	5210	Scrub-B-Low-All	2	0.000000	0.050000	573.000000
	3879556	5220	Scrub-B-Med-All	2	0.000000	0.150000	368.000000
	3879556	5230	Scrub-B-High-All	2	0.222394	0.610000	107.000000
	3879556	5310	Scrub-C-Low-All	2	0.889576	0.030000	601.000000
	3879556	5320	Scrub-C-Med-All	2	0.000000	0.150000	368.000000
	3879556	5330	Scrub-C-High-All	2	0.889576	0.330000	164.000000
	3879556	5410	Scrub-D-Low-All	2	0.000000	0.050000	573.000000
	3879556	5420	Scrub-D-Med-All	2	0.000000	0.150000	368.000000
	3879556	5430	Scrub-D-High-All	2	0.000000	0.270000	199.000000
	3879556	6110	Grassland-A-Low-All	2	0.000000	0.050000	573.000000
	3879556	6120	Grassland-A-Med-All	2	0.000000	0.150000	368.000000
	3879556	6130	Grassland-A-High-All	2	0.000000	0.270000	199.000000
	3879556	6210	Grassland-B-Low-All	2	0.000000	0.050000	573.000000
	3879556	6220	Grassland-B-Med-All	2	0.000000	0.150000	368.000000
	3879556	6230	Grassland-B-High-All	2	0.000000	0.270000	199.000000
	3879556	6310	Grassland-C-Low-All	2	1.334364	0.030000	615.000000
	3879556	6320	Grassland-C-Med-All	2	0.222394	0.070000	488.000000
	3879556	6330	Grassland-C-High-All	2	0.000000	0.270000	199.000000
	3879556	6410	Grassland-D-Low-All	2	0.000000	0.050000	573.000000
	3879556	6420	Grassland-D-Med-All	2	0.000000	0.150000	368.000000
	3879556	6430	Grassland-D-High-All	2	0.000000	0.270000	199.000000
	3879556	7110	Pasture-A-Low-All	2	0.000000	0.050000	573.000000
	3879556	7120	Pasture-A-Med-All	2	0.000000	0.150000	368.000000
	3879556	7130	Pasture-A-High-All	2	0.000000	0.270000	199.000000
	3879556	7210	Pasture-B-Low-All	2	0.000000	0.050000	573.000000
	3879556	7220	Pasture-B-Med-All	2	0.000000	0.150000	368.000000
	3879556	7230	Pasture-B-High-All	2	0.222394	0.470000	121.000000
	3879556	7310	Pasture-C-Low-All	2	0.000000	0.050000	573.000000
	3879556	7320	Pasture-C-Med-All	2	0.000000	0.150000	368.000000
	3879556	7330	Pasture-C-High-All	2	0.000000	0.270000	199.000000
	3879556	7410	Pasture-D-Low-All	2	0.000000	0.050000	573.000000
	3879556	7420	Pasture-D-Med-All	2	0.000000	0.150000	368.000000
	3879556	7430	Pasture-D-High-All	2	0.000000	0.270000	199.000000
	3879556	8110	Agriculture-A-Low-All	2	0.000000	0.050000	573.000000
	3879556	8120	Agriculture-A-Med-All	2	0.000000	0.150000	368.000000
	3879556	8130	Agriculture-A-High-All	2	0.000000	0.270000	199.000000
	3879556	8210	Agriculture-B-Low-All	2	0.000000	0.050000	573.000000
	3879556	8220	Agriculture-B-Med-All	2	0.000000	0.150000	368.000000
	3879556	8230	Agriculture-B-High-All	2	0.000000	0.270000	199.000000
	3879556	8310	Agriculture-C-Low-All	2	0.000000	0.050000	573.000000
	3879556	8320	Agriculture-C-Med-All	2	0.000000	0.150000	368.000000
	3879556	8330	Agriculture-C-High-All	2	0.000000	0.270000	199.000000
	3879556	8410	Agriculture-D-Low-All	2	0.000000	0.050000	573.000000
	3879556	8420	Agriculture-D-Med-All	2	0.000000	0.150000	368.000000
	3879556	8430	Agriculture-D-High-All	2	0.000000	0.270000	199.000000
	3879556	9000	Water-All-All-All	2	0.000000	0.270000	199.000000
	3879556	10110	Irrigation-A-Low-All	2	0.000000	0.050000	573.000000
	3879556	10120	Irrigation-A-Med-All	2	0.000000	0.150000	368.000000
	3879556	10130	Irrigation-A-High-All	2	0.000000	0.270000	199.000000
	3879556	10210	Irrigation-B-Low-All	2	0.000000	0.050000	573.000000
	3879556	10220	Irrigation-B-Med-All	2	0.000000	0.150000	368.000000
	3879556	10230	Irrigation-B-High-All	2	0.000000	0.270000	199.000000
	3879556	10310	Irrigation-C-Low-All	2	0.000000	0.050000	573.000000
	3879556	10320	Irrigation-C-Med-All	2	0.000000	0.150000	368.000000
	3879556	10330	Irrigation-C-High-All	2	0.000000	0.270000	199.000000
	3879556	10410	Irrigation-D-Low-All	2	0.000000	0.050000	573.000000
	3879556	10420	Irrigation-D-Med-All	2	0.000000	0.150000	368.000000
	3879556	10430	Irrigation-D-High-All	2	0.000000	0.270000	199.000000
	3879558	1000	Developed_Impervious-All-All-All	1	0.064679	0.110000	411.000000
	3879558	2110	Developed_Pervious-A-Low-All	2	0.000000	0.050000	573.000000
	3879558	2120	Developed_Pervious-A-Med-All	2	0.000000	0.150000	368.000000
	3879558	2130	Developed_Pervious-A-High-All	2	0.000000	0.370000	142.000000
	3879558	2210	Developed_Pervious-B-Low-All	2	0.221773	0.050000	573.000000
	3879558	2220	Developed_Pervious-B-Med-All	2	0.889194	0.080000	467.000000
	3879558	2230	Developed_Pervious-B-High-All	2	0.382832	0.260000	206.000000
	3879558	2310	Developed_Pervious-C-Low-All	2	0.889289	0.030000	601.000000
	3879558	2320	Developed_Pervious-C-Med-All	2	2.889975	0.060000	516.000000
	3879558	2330	Developed_Pervious-C-High-All	2	0.889289	0.290000	185.000000
	3879558	2410	Developed_Pervious-D-Low-All	2	0.000000	0.050000	573.000000
	3879558	2420	Developed_Pervious-D-Med-All	2	0.000000	0.150000	368.000000
	3879558	2430	Developed_Pervious-D-High-All	2	0.000000	0.370000	142.000000
	3879558	3110	Barren-A-Low-All	2	0.000000	0.050000	573.000000
	3879558	3120	Barren-A-Med-All	2	0.000000	0.150000	368.000000
	3879558	3130	Barren-A-High-All	2	0.000000	0.370000	142.000000
	3879558	3210	Barren-B-Low-All	2	0.000000	0.050000	573.000000
	3879558	3220	Barren-B-Med-All	2	0.000000	0.150000	368.000000
	3879558	3230	Barren-B-High-All	2	0.000000	0.370000	142.000000
	3879558	3310	Barren-C-Low-All	2	0.000000	0.050000	573.000000
	3879558	3320	Barren-C-Med-All	2	0.000000	0.150000	368.000000
	3879558	3330	Barren-C-High-All	2	0.000000	0.370000	142.000000
	3879558	3410	Barren-D-Low-All	2	0.000000	0.050000	573.000000
	3879558	3420	Barren-D-Med-All	2	0.000000	0.150000	368.000000
	3879558	3430	Barren-D-High-All	2	0.000000	0.370000	142.000000
	3879558	4110	Forest-A-Low-All	2	0.000000	0.050000	573.000000
	3879558	4120	Forest-A-Med-All	2	0.000000	0.150000	368.000000
	3879558	4130	Forest-A-High-All	2	0.000000	0.370000	142.000000
	3879558	4210	Forest-B-Low-All	2	4.670273	0.030000	601.000000
	3879558	4220	Forest-B-Med-All	2	19.125880	0.110000	411.000000
	3879558	4230	Forest-B-High-All	2	430.109907	0.450000	121.000000
	3879558	4310	Forest-C-Low-All	2	0.444788	0.030000	594.000000
	3879558	4320	Forest-C-Med-All	2	6.449425	0.110000	396.000000
	3879558	4330	Forest-C-High-All	2	94.739824	0.420000	128.000000
	3879558	4410	Forest-D-Low-All	2	0.000000	0.050000	573.000000
	3879558	4420	Forest-D-Med-All	2	0.000000	0.150000	368.000000
	3879558	4430	Forest-D-High-All	2	0.000000	0.370000	142.000000
	3879558	5110	Scrub-A-Low-All	2	0.000000	0.050000	573.000000
	3879558	5120	Scrub-A-Med-All	2	0.000000	0.150000	368.000000
	3879558	5130	Scrub-A-High-All	2	0.000000	0.370000	142.000000
	3879558	5210	Scrub-B-Low-All	2	6.004637	0.040000	587.000000
	3879558	5220	Scrub-B-Med-All	2	26.909668	0.100000	432.000000
	3879558	5230	Scrub-B-High-All	2	91.403915	0.380000	142.000000
	3879558	5310	Scrub-C-Low-All	2	7.561394	0.030000	594.000000
	3879558	5320	Scrub-C-Med-All	2	41.142881	0.100000	432.000000
	3879558	5330	Scrub-C-High-All	2	134.325948	0.350000	156.000000
	3879558	5410	Scrub-D-Low-All	2	0.000000	0.050000	573.000000
	3879558	5420	Scrub-D-Med-All	2	0.000000	0.150000	368.000000
	3879558	5430	Scrub-D-High-All	2	0.000000	0.370000	142.000000
	3879558	6110	Grassland-A-Low-All	2	0.000000	0.050000	573.000000
	3879558	6120	Grassland-A-Med-All	2	0.000000	0.150000	368.000000
	3879558	6130	Grassland-A-High-All	2	0.000000	0.370000	142.000000
	3879558	6210	Grassland-B-Low-All	2	2.223940	0.030000	594.000000
	3879558	6220	Grassland-B-Med-All	2	7.561394	0.100000	432.000000
	3879558	6230	Grassland-B-High-All	2	10.230122	0.330000	164.000000
	3879558	6310	Grassland-C-Low-All	2	0.222394	0.050000	573.000000
	3879558	6320	Grassland-C-Med-All	2	1.111970	0.110000	404.000000
	3879558	6330	Grassland-C-High-All	2	7.783788	0.310000	171.000000
	3879558	6410	Grassland-D-Low-All	2	0.000000	0.050000	573.000000
	3879558	6420	Grassland-D-Med-All	2	0.000000	0.150000	368.000000
	3879558	6430	Grassland-D-High-All	2	0.000000	0.370000	142.000000
	3879558	7110	Pasture-A-Low-All	2	0.000000	0.050000	573.000000
	3879558	7120	Pasture-A-Med-All	2	0.000000	0.150000	368.000000
	3879558	7130	Pasture-A-High-All	2	0.000000	0.370000	142.000000
	3879558	7210	Pasture-B-Low-All	2	1.111970	0.040000	580.000000
	3879558	7220	Pasture-B-Med-All	2	2.446333	0.090000	446.000000
	3879558	7230	Pasture-B-High-All	2	5.115061	0.400000	135.000000
	3879558	7310	Pasture-C-Low-All	2	0.000000	0.050000	573.000000
	3879558	7320	Pasture-C-Med-All	2	0.667182	0.110000	404.000000
	3879558	7330	Pasture-C-High-All	2	1.779152	0.350000	156.000000
	3879558	7410	Pasture-D-Low-All	2	0.000000	0.050000	573.000000
	3879558	7420	Pasture-D-Med-All	2	0.000000	0.150000	368.000000
	3879558	7430	Pasture-D-High-All	2	0.000000	0.370000	142.000000
	3879558	8110	Agriculture-A-Low-All	2	0.000000	0.050000	573.000000
	3879558	8120	Agriculture-A-Med-All	2	0.000000	0.150000	368.000000
	3879558	8130	Agriculture-A-High-All	2	0.000000	0.370000	142.000000
	3879558	8210	Agriculture-B-Low-All	2	0.000000	0.050000	573.000000
	3879558	8220	Agriculture-B-Med-All	2	0.222394	0.080000	467.000000
	3879558	8230	Agriculture-B-High-All	2	6.449425	0.560000	114.000000
	3879558	8310	Agriculture-C-Low-All	2	0.222394	0.040000	573.000000
	3879558	8320	Agriculture-C-Med-All	2	0.222394	0.080000	481.000000
	3879558	8330	Agriculture-C-High-All	2	0.667182	0.460000	121.000000
	3879558	8410	Agriculture-D-Low-All	2	0.000000	0.050000	573.000000
	3879558	8420	Agriculture-D-Med-All	2	0.000000	0.150000	368.000000
	3879558	8430	Agriculture-D-High-All	2	0.000000	0.370000	142.000000
	3879558	9000	Water-All-All-All	2	0.000000	0.370000	142.000000
	3879558	10110	Irrigation-A-Low-All	2	0.000000	0.050000	573.000000
	3879558	10120	Irrigation-A-Med-All	2	0.000000	0.150000	368.000000
	3879558	10130	Irrigation-A-High-All	2	0.000000	0.370000	142.000000
	3879558	10210	Irrigation-B-Low-All	2	0.000000	0.050000	573.000000
	3879558	10220	Irrigation-B-Med-All	2	0.000000	0.150000	368.000000
	3879558	10230	Irrigation-B-High-All	2	0.000000	0.370000	142.000000
	3879558	10310	Irrigation-C-Low-All	2	0.000000	0.050000	573.000000
	3879558	10320	Irrigation-C-Med-All	2	0.000000	0.150000	368.000000
	3879558	10330	Irrigation-C-High-All	2	0.000000	0.370000	142.000000
	3879558	10410	Irrigation-D-Low-All	2	0.000000	0.050000	573.000000
	3879558	10420	Irrigation-D-Med-All	2	0.000000	0.150000	368.000000
	3879558	10430	Irrigation-D-High-All	2	0.000000	0.370000	142.000000
	3879560	1000	Developed_Impervious-All-All-All	1	0.000000	0.380000	135.000000
	3879560	2110	Developed_Pervious-A-Low-All	2	0.000000	0.050000	573.000000
	3879560	2120	Developed_Pervious-A-Med-All	2	0.000000	0.150000	368.000000
	3879560	2130	Developed_Pervious-A-High-All	2	0.000000	0.380000	135.000000
	3879560	2210	Developed_Pervious-B-Low-All	2	0.000000	0.050000	573.000000
	3879560	2220	Developed_Pervious-B-Med-All	2	0.000000	0.150000	368.000000
	3879560	2230	Developed_Pervious-B-High-All	2	0.000000	0.380000	135.000000
	3879560	2310	Developed_Pervious-C-Low-All	2	0.000000	0.050000	573.000000
	3879560	2320	Developed_Pervious-C-Med-All	2	0.000000	0.150000	368.000000
	3879560	2330	Developed_Pervious-C-High-All	2	0.000000	0.380000	135.000000
	3879560	2410	Developed_Pervious-D-Low-All	2	0.000000	0.050000	573.000000
	3879560	2420	Developed_Pervious-D-Med-All	2	0.000000	0.150000	368.000000
	3879560	2430	Developed_Pervious-D-High-All	2	0.000000	0.380000	135.000000
	3879560	3110	Barren-A-Low-All	2	0.000000	0.050000	573.000000
	3879560	3120	Barren-A-Med-All	2	0.000000	0.150000	368.000000
	3879560	3130	Barren-A-High-All	2	0.000000	0.380000	135.000000
	3879560	3210	Barren-B-Low-All	2	0.000000	0.050000	573.000000
	3879560	3220	Barren-B-Med-All	2	0.000000	0.150000	368.000000
	3879560	3230	Barren-B-High-All	2	0.000000	0.380000	135.000000
	3879560	3310	Barren-C-Low-All	2	0.000000	0.050000	573.000000
	3879560	3320	Barren-C-Med-All	2	0.000000	0.150000	368.000000
	3879560	3330	Barren-C-High-All	2	0.000000	0.380000	135.000000
	3879560	3410	Barren-D-Low-All	2	0.000000	0.050000	573.000000
	3879560	3420	Barren-D-Med-All	2	0.000000	0.150000	368.000000
	3879560	3430	Barren-D-High-All	2	0.000000	0.380000	135.000000
	3879560	4110	Forest-A-Low-All	2	0.000000	0.050000	573.000000
	3879560	4120	Forest-A-Med-All	2	0.000000	0.150000	368.000000
	3879560	4130	Forest-A-High-All	2	0.000000	0.380000	135.000000
	3879560	4210	Forest-B-Low-All	2	0.000000	0.050000	573.000000
	3879560	4220	Forest-B-Med-All	2	0.000000	0.150000	368.000000
	3879560	4230	Forest-B-High-All	2	0.000000	0.380000	135.000000
	3879560	4310	Forest-C-Low-All	2	0.000000	0.050000	573.000000
	3879560	4320	Forest-C-Med-All	2	0.000000	0.150000	368.000000
	3879560	4330	Forest-C-High-All	2	0.000000	0.380000	135.000000
	3879560	4410	Forest-D-Low-All	2	0.000000	0.050000	573.000000
	3879560	4420	Forest-D-Med-All	2	0.000000	0.150000	368.000000
	3879560	4430	Forest-D-High-All	2	0.000000	0.380000	135.000000
	3879560	5110	Scrub-A-Low-All	2	0.000000	0.050000	573.000000
	3879560	5120	Scrub-A-Med-All	2	0.000000	0.150000	368.000000
	3879560	5130	Scrub-A-High-All	2	0.000000	0.380000	135.000000
	3879560	5210	Scrub-B-Low-All	2	0.000000	0.050000	573.000000
	3879560	5220	Scrub-B-Med-All	2	0.000000	0.150000	368.000000
	3879560	5230	Scrub-B-High-All	2	0.000000	0.380000	135.000000
	3879560	5310	Scrub-C-Low-All	2	0.000000	0.050000	573.000000
	3879560	5320	Scrub-C-Med-All	2	0.000000	0.150000	368.000000
	3879560	5330	Scrub-C-High-All	2	11.564486	0.430000	128.000000
	3879560	5410	Scrub-D-Low-All	2	0.000000	0.050000	573.000000
	3879560	5420	Scrub-D-Med-All	2	0.000000	0.150000	368.000000
	3879560	5430	Scrub-D-High-All	2	0.000000	0.380000	135.000000
	3879560	6110	Grassland-A-Low-All	2	0.000000	0.050000	573.000000
	3879560	6120	Grassland-A-Med-All	2	0.000000	0.150000	368.000000
	3879560	6130	Grassland-A-High-All	2	0.000000	0.380000	135.000000
	3879560	6210	Grassland-B-Low-All	2	0.000000	0.050000	573.000000
	3879560	6220	Grassland-B-Med-All	2	0.000000	0.150000	368.000000
	3879560	6230	Grassland-B-High-All	2	0.000000	0.380000	135.000000
	3879560	6310	Grassland-C-Low-All	2	0.000000	0.050000	573.000000
	3879560	6320	Grassland-C-Med-All	2	1.111970	0.100000	425.000000
	3879560	6330	Grassland-C-High-All	2	1.111970	0.400000	135.000000
	3879560	6410	Grassland-D-Low-All	2	0.000000	0.050000	573.000000
	3879560	6420	Grassland-D-Med-All	2	0.000000	0.150000	368.000000
	3879560	6430	Grassland-D-High-All	2	0.000000	0.380000	135.000000
	3879560	7110	Pasture-A-Low-All	2	0.000000	0.050000	573.000000
	3879560	7120	Pasture-A-Med-All	2	0.000000	0.150000	368.000000
	3879560	7130	Pasture-A-High-All	2	0.000000	0.380000	135.000000
	3879560	7210	Pasture-B-Low-All	2	0.000000	0.050000	573.000000
	3879560	7220	Pasture-B-Med-All	2	0.000000	0.150000	368.000000
	3879560	7230	Pasture-B-High-All	2	0.000000	0.380000	135.000000
	3879560	7310	Pasture-C-Low-All	2	0.000000	0.050000	573.000000
	3879560	7320	Pasture-C-Med-All	2	0.444788	0.090000	439.000000
	3879560	7330	Pasture-C-High-All	2	0.667182	0.300000	178.000000
	3879560	7410	Pasture-D-Low-All	2	0.000000	0.050000	573.000000
	3879560	7420	Pasture-D-Med-All	2	0.000000	0.150000	368.000000
	3879560	7430	Pasture-D-High-All	2	0.000000	0.380000	135.000000
	3879560	8110	Agriculture-A-Low-All	2	0.000000	0.050000	573.000000
	3879560	8120	Agriculture-A-Med-All	2	0.000000	0.150000	368.000000
	3879560	8130	Agriculture-A-High-All	2	0.000000	0.380000	135.000000
	3879560	8210	Agriculture-B-Low-All	2	0.000000	0.050000	573.000000
	3879560	8220	Agriculture-B-Med-All	2	0.000000	0.150000	368.000000
	3879560	8230	Agriculture-B-High-All	2	0.000000	0.380000	135.000000
	3879560	8310	Agriculture-C-Low-All	2	0.000000	0.050000	573.000000
	3879560	8320	Agriculture-C-Med-All	2	0.000000	0.150000	368.000000
	3879560	8330	Agriculture-C-High-All	2	0.000000	0.380000	135.000000
	3879560	8410	Agriculture-D-Low-All	2	0.000000	0.050000	573.000000
	3879560	8420	Agriculture-D-Med-All	2	0.000000	0.150000	368.000000
	3879560	8430	Agriculture-D-High-All	2	0.000000	0.380000	135.000000
	3879560	9000	Water-All-All-All	2	0.000000	0.380000	135.000000
	3879560	10110	Irrigation-A-Low-All	2	0.000000	0.050000	573.000000
	3879560	10120	Irrigation-A-Med-All	2	0.000000	0.150000	368.000000
	3879560	10130	Irrigation-A-High-All	2	0.000000	0.380000	135.000000
	3879560	10210	Irrigation-B-Low-All	2	0.000000	0.050000	573.000000
	3879560	10220	Irrigation-B-Med-All	2	0.000000	0.150000	368.000000
	3879560	10230	Irrigation-B-High-All	2	0.000000	0.380000	135.000000
	3879560	10310	Irrigation-C-Low-All	2	0.000000	0.050000	573.000000
	3879560	10320	Irrigation-C-Med-All	2	0.000000	0.150000	368.000000
	3879560	10330	Irrigation-C-High-All	2	0.000000	0.380000	135.000000
	3879560	10410	Irrigation-D-Low-All	2	0.000000	0.050000	573.000000
	3879560	10420	Irrigation-D-Med-All	2	0.000000	0.150000	368.000000
	3879560	10430	Irrigation-D-High-All	2	0.000000	0.380000	135.000000
	3879562	1000	Developed_Impervious-All-All-All	1	0.085998	0.270000	199.000000
	3879562	2110	Developed_Pervious-A-Low-All	2	0.000000	0.050000	573.000000
	3879562	2120	Developed_Pervious-A-Med-All	2	0.000000	0.150000	368.000000
	3879562	2130	Developed_Pervious-A-High-All	2	0.000000	0.290000	178.000000
	3879562	2210	Developed_Pervious-B-Low-All	2	0.000000	0.050000	573.000000
	3879562	2220	Developed_Pervious-B-Med-All	2	0.000000	0.150000	368.000000
	3879562	2230	Developed_Pervious-B-High-All	2	0.000000	0.290000	178.000000
	3879562	2310	Developed_Pervious-C-Low-All	2	2.141639	0.030000	608.000000
	3879562	2320	Developed_Pervious-C-Med-All	2	1.111760	0.110000	411.000000
	3879562	2330	Developed_Pervious-C-High-All	2	10.893817	0.330000	164.000000
	3879562	2410	Developed_Pervious-D-Low-All	2	0.000000	0.050000	573.000000
	3879562	2420	Developed_Pervious-D-Med-All	2	0.000000	0.150000	368.000000
	3879562	2430	Developed_Pervious-D-High-All	2	0.000000	0.290000	178.000000
	3879562	3110	Barren-A-Low-All	2	0.000000	0.050000	573.000000
	3879562	3120	Barren-A-Med-All	2	0.000000	0.150000	368.000000
	3879562	3130	Barren-A-High-All	2	0.000000	0.290000	178.000000
	3879562	3210	Barren-B-Low-All	2	0.000000	0.050000	573.000000
	3879562	3220	Barren-B-Med-All	2	0.000000	0.150000	368.000000
	3879562	3230	Barren-B-High-All	2	0.000000	0.290000	178.000000
	3879562	3310	Barren-C-Low-All	2	0.000000	0.050000	573.000000
	3879562	3320	Barren-C-Med-All	2	0.000000	0.150000	368.000000
	3879562	3330	Barren-C-High-All	2	0.000000	0.290000	178.000000
	3879562	3410	Barren-D-Low-All	2	0.000000	0.050000	573.000000
	3879562	3420	Barren-D-Med-All	2	0.000000	0.150000	368.000000
	3879562	3430	Barren-D-High-All	2	0.000000	0.290000	178.000000
	3879562	4110	Forest-A-Low-All	2	0.000000	0.050000	573.000000
	3879562	4120	Forest-A-Med-All	2	0.000000	0.150000	368.000000
	3879562	4130	Forest-A-High-All	2	0.000000	0.290000	178.000000
	3879562	4210	Forest-B-Low-All	2	0.889576	0.030000	601.000000
	3879562	4220	Forest-B-Med-All	2	2.668727	0.120000	389.000000
	3879562	4230	Forest-B-High-All	2	12.676455	0.280000	192.000000
	3879562	4310	Forest-C-Low-All	2	4.003091	0.030000	594.000000
	3879562	4320	Forest-C-Med-All	2	12.898849	0.110000	411.000000
	3879562	4330	Forest-C-High-All	2	193.037952	0.370000	142.000000
	3879562	4410	Forest-D-Low-All	2	0.000000	0.050000	573.000000
	3879562	4420	Forest-D-Med-All	2	0.000000	0.150000	368.000000
	3879562	4430	Forest-D-High-All	2	0.000000	0.290000	178.000000
	3879562	5110	Scrub-A-Low-All	2	0.000000	0.050000	573.000000
	3879562	5120	Scrub-A-Med-All	2	0.000000	0.150000	368.000000
	3879562	5130	Scrub-A-High-All	2	0.000000	0.290000	178.000000
	3879562	5210	Scrub-B-Low-All	2	4.225485	0.030000	615.000000
	3879562	5220	Scrub-B-Med-All	2	17.569122	0.100000	418.000000
	3879562	5230	Scrub-B-High-All	2	20.015456	0.210000	248.000000
	3879562	5310	Scrub-C-Low-All	2	4.447879	0.030000	601.000000
	3879562	5320	Scrub-C-Med-All	2	4.892667	0.100000	418.000000
	3879562	5330	Scrub-C-High-All	2	23.573759	0.290000	185.000000
	3879562	5410	Scrub-D-Low-All	2	0.000000	0.050000	573.000000
	3879562	5420	Scrub-D-Med-All	2	0.000000	0.150000	368.000000
	3879562	5430	Scrub-D-High-All	2	0.000000	0.290000	178.000000
	3879562	6110	Grassland-A-Low-All	2	0.000000	0.050000	573.000000
	3879562	6120	Grassland-A-Med-All	2	0.000000	0.150000	368.000000
	3879562	6130	Grassland-A-High-All	2	0.000000	0.290000	178.000000
	3879562	6210	Grassland-B-Low-All	2	0.889576	0.040000	587.000000
	3879562	6220	Grassland-B-Med-All	2	4.003091	0.090000	460.000000
	3879562	6230	Grassland-B-High-All	2	3.335909	0.210000	255.000000
	3879562	6310	Grassland-C-Low-All	2	0.222394	0.050000	573.000000
	3879562	6320	Grassland-C-Med-All	2	0.222394	0.110000	411.000000
	3879562	6330	Grassland-C-High-All	2	0.222394	0.180000	298.000000
	3879562	6410	Grassland-D-Low-All	2	0.000000	0.050000	573.000000
	3879562	6420	Grassland-D-Med-All	2	0.000000	0.150000	368.000000
	3879562	6430	Grassland-D-High-All	2	0.000000	0.290000	178.000000
	3879562	7110	Pasture-A-Low-All	2	0.000000	0.050000	573.000000
	3879562	7120	Pasture-A-Med-All	2	0.000000	0.150000	368.000000
	3879562	7130	Pasture-A-High-All	2	0.000000	0.290000	178.000000
	3879562	7210	Pasture-B-Low-All	2	0.889576	0.020000	644.000000
	3879562	7220	Pasture-B-Med-All	2	2.446333	0.090000	453.000000
	3879562	7230	Pasture-B-High-All	2	0.444788	0.200000	269.000000
	3879562	7310	Pasture-C-Low-All	2	0.222394	0.020000	629.000000
	3879562	7320	Pasture-C-Med-All	2	0.000000	0.150000	368.000000
	3879562	7330	Pasture-C-High-All	2	0.444788	0.480000	121.000000
	3879562	7410	Pasture-D-Low-All	2	0.000000	0.050000	573.000000
	3879562	7420	Pasture-D-Med-All	2	0.000000	0.150000	368.000000
	3879562	7430	Pasture-D-High-All	2	0.000000	0.290000	178.000000
	3879562	8110	Agriculture-A-Low-All	2	0.000000	0.050000	573.000000
	3879562	8120	Agriculture-A-Med-All	2	0.000000	0.150000	368.000000
	3879562	8130	Agriculture-A-High-All	2	0.000000	0.290000	178.000000
	3879562	8210	Agriculture-B-Low-All	2	0.000000	0.050000	573.000000
	3879562	8220	Agriculture-B-Med-All	2	0.222394	0.060000	516.000000
	3879562	8230	Agriculture-B-High-All	2	0.000000	0.290000	178.000000
	3879562	8310	Agriculture-C-Low-All	2	0.000000	0.050000	573.000000
	3879562	8320	Agriculture-C-Med-All	2	0.000000	0.150000	368.000000
	3879562	8330	Agriculture-C-High-All	2	0.444788	0.490000	121.000000
	3879562	8410	Agriculture-D-Low-All	2	0.000000	0.050000	573.000000
	3879562	8420	Agriculture-D-Med-All	2	0.000000	0.150000	368.000000
	3879562	8430	Agriculture-D-High-All	2	0.000000	0.290000	178.000000
	3879562	9000	Water-All-All-All	2	0.000000	0.290000	178.000000
	3879562	10110	Irrigation-A-Low-All	2	0.000000	0.050000	573.000000
	3879562	10120	Irrigation-A-Med-All	2	0.000000	0.150000	368.000000
	3879562	10130	Irrigation-A-High-All	2	0.000000	0.290000	178.000000
	3879562	10210	Irrigation-B-Low-All	2	0.000000	0.050000	573.000000
	3879562	10220	Irrigation-B-Med-All	2	0.000000	0.150000	368.000000
	3879562	10230	Irrigation-B-High-All	2	0.000000	0.290000	178.000000
	3879562	10310	Irrigation-C-Low-All	2	0.000000	0.050000	573.000000
	3879562	10320	Irrigation-C-Med-All	2	0.000000	0.150000	368.000000
	3879562	10330	Irrigation-C-High-All	2	0.000000	0.290000	178.000000
	3879562	10410	Irrigation-D-Low-All	2	0.000000	0.050000	573.000000
	3879562	10420	Irrigation-D-Med-All	2	0.000000	0.150000	368.000000
	3879562	10430	Irrigation-D-High-All	2	0.000000	0.290000	178.000000
	3879564	1000	Developed_Impervious-All-All-All	1	0.034951	0.190000	284.000000
	3879564	2110	Developed_Pervious-A-Low-All	2	0.000000	0.050000	573.000000
	3879564	2120	Developed_Pervious-A-Med-All	2	0.000000	0.150000	368.000000
	3879564	2130	Developed_Pervious-A-High-All	2	0.000000	0.290000	185.000000
	3879564	2210	Developed_Pervious-B-Low-All	2	0.000000	0.050000	573.000000
	3879564	2220	Developed_Pervious-B-Med-All	2	0.000000	0.150000	368.000000
	3879564	2230	Developed_Pervious-B-High-All	2	0.000000	0.290000	185.000000
	3879564	2310	Developed_Pervious-C-Low-All	2	2.001121	0.030000	608.000000
	3879564	2320	Developed_Pervious-C-Med-All	2	6.892229	0.100000	432.000000
	3879564	2330	Developed_Pervious-C-High-All	2	15.090281	0.260000	206.000000
	3879564	2410	Developed_Pervious-D-Low-All	2	0.000000	0.050000	573.000000
	3879564	2420	Developed_Pervious-D-Med-All	2	0.000000	0.150000	368.000000
	3879564	2430	Developed_Pervious-D-High-All	2	0.222359	0.250000	220.000000
	3879564	3110	Barren-A-Low-All	2	0.000000	0.050000	573.000000
	3879564	3120	Barren-A-Med-All	2	0.000000	0.150000	368.000000
	3879564	3130	Barren-A-High-All	2	0.000000	0.290000	185.000000
	3879564	3210	Barren-B-Low-All	2	0.000000	0.050000	573.000000
	3879564	3220	Barren-B-Med-All	2	0.000000	0.150000	368.000000
	3879564	3230	Barren-B-High-All	2	0.000000	0.290000	185.000000
	3879564	3310	Barren-C-Low-All	2	0.000000	0.050000	573.000000
	3879564	3320	Barren-C-Med-All	2	0.000000	0.150000	368.000000
	3879564	3330	Barren-C-High-All	2	0.000000	0.290000	185.000000
	3879564	3410	Barren-D-Low-All	2	0.000000	0.050000	573.000000
	3879564	3420	Barren-D-Med-All	2	0.000000	0.150000	368.000000
	3879564	3430	Barren-D-High-All	2	0.000000	0.290000	185.000000
	3879564	4110	Forest-A-Low-All	2	0.000000	0.050000	573.000000
	3879564	4120	Forest-A-Med-All	2	0.000000	0.150000	368.000000
	3879564	4130	Forest-A-High-All	2	0.000000	0.290000	185.000000
	3879564	4210	Forest-B-Low-All	2	0.000000	0.050000	573.000000
	3879564	4220	Forest-B-Med-All	2	0.000000	0.150000	368.000000
	3879564	4230	Forest-B-High-All	2	0.222394	0.510000	114.000000
	3879564	4310	Forest-C-Low-All	2	5.782243	0.030000	615.000000
	3879564	4320	Forest-C-Med-All	2	10.007728	0.100000	418.000000
	3879564	4330	Forest-C-High-All	2	142.109736	0.420000	128.000000
	3879564	4410	Forest-D-Low-All	2	0.000000	0.050000	573.000000
	3879564	4420	Forest-D-Med-All	2	0.667182	0.100000	425.000000
	3879564	4430	Forest-D-High-All	2	8.006182	0.370000	142.000000
	3879564	5110	Scrub-A-Low-All	2	0.000000	0.050000	573.000000
	3879564	5120	Scrub-A-Med-All	2	0.000000	0.150000	368.000000
	3879564	5130	Scrub-A-High-All	2	0.000000	0.290000	185.000000
	3879564	5210	Scrub-B-Low-All	2	0.000000	0.050000	573.000000
	3879564	5220	Scrub-B-Med-All	2	0.000000	0.150000	368.000000
	3879564	5230	Scrub-B-High-All	2	0.000000	0.290000	185.000000
	3879564	5310	Scrub-C-Low-All	2	8.673364	0.030000	594.000000
	3879564	5320	Scrub-C-Med-All	2	56.488064	0.100000	432.000000
	3879564	5330	Scrub-C-High-All	2	214.832559	0.320000	164.000000
	3879564	5410	Scrub-D-Low-All	2	1.111970	0.030000	594.000000
	3879564	5420	Scrub-D-Med-All	2	22.684183	0.110000	404.000000
	3879564	5430	Scrub-D-High-All	2	55.598488	0.280000	185.000000
	3879564	6110	Grassland-A-Low-All	2	0.000000	0.050000	573.000000
	3879564	6120	Grassland-A-Med-All	2	0.000000	0.150000	368.000000
	3879564	6130	Grassland-A-High-All	2	0.000000	0.290000	185.000000
	3879564	6210	Grassland-B-Low-All	2	0.000000	0.050000	573.000000
	3879564	6220	Grassland-B-Med-All	2	0.000000	0.150000	368.000000
	3879564	6230	Grassland-B-High-All	2	0.000000	0.290000	185.000000
	3879564	6310	Grassland-C-Low-All	2	8.673364	0.030000	608.000000
	3879564	6320	Grassland-C-Med-All	2	10.897304	0.100000	432.000000
	3879564	6330	Grassland-C-High-All	2	44.256397	0.340000	156.000000
	3879564	6410	Grassland-D-Low-All	2	0.222394	0.020000	651.000000
	3879564	6420	Grassland-D-Med-All	2	0.667182	0.080000	481.000000
	3879564	6430	Grassland-D-High-All	2	0.889576	0.380000	142.000000
	3879564	7110	Pasture-A-Low-All	2	0.000000	0.050000	573.000000
	3879564	7120	Pasture-A-Med-All	2	0.000000	0.150000	368.000000
	3879564	7130	Pasture-A-High-All	2	0.000000	0.290000	185.000000
	3879564	7210	Pasture-B-Low-All	2	0.000000	0.050000	573.000000
	3879564	7220	Pasture-B-Med-All	2	0.000000	0.150000	368.000000
	3879564	7230	Pasture-B-High-All	2	0.000000	0.290000	185.000000
	3879564	7310	Pasture-C-Low-All	2	0.000000	0.050000	573.000000
	3879564	7320	Pasture-C-Med-All	2	0.222394	0.130000	382.000000
	3879564	7330	Pasture-C-High-All	2	10.674910	0.400000	135.000000
	3879564	7410	Pasture-D-Low-All	2	0.000000	0.050000	573.000000
	3879564	7420	Pasture-D-Med-All	2	0.667182	0.100000	418.000000
	3879564	7430	Pasture-D-High-All	2	0.222394	0.480000	121.000000
	3879564	8110	Agriculture-A-Low-All	2	0.000000	0.050000	573.000000
	3879564	8120	Agriculture-A-Med-All	2	0.000000	0.150000	368.000000
	3879564	8130	Agriculture-A-High-All	2	0.000000	0.290000	185.000000
	3879564	8210	Agriculture-B-Low-All	2	0.000000	0.050000	573.000000
	3879564	8220	Agriculture-B-Med-All	2	0.000000	0.150000	368.000000
	3879564	8230	Agriculture-B-High-All	2	0.000000	0.290000	185.000000
	3879564	8310	Agriculture-C-Low-All	2	0.000000	0.050000	573.000000
	3879564	8320	Agriculture-C-Med-All	2	0.000000	0.150000	368.000000
	3879564	8330	Agriculture-C-High-All	2	0.444788	0.470000	121.000000
	3879564	8410	Agriculture-D-Low-All	2	0.000000	0.050000	573.000000
	3879564	8420	Agriculture-D-Med-All	2	0.000000	0.150000	368.000000
	3879564	8430	Agriculture-D-High-All	2	0.000000	0.290000	185.000000
	3879564	9000	Water-All-All-All	2	0.000000	0.290000	185.000000
	3879564	10110	Irrigation-A-Low-All	2	0.000000	0.050000	573.000000
	3879564	10120	Irrigation-A-Med-All	2	0.000000	0.150000	368.000000
	3879564	10130	Irrigation-A-High-All	2	0.000000	0.290000	185.000000
	3879564	10210	Irrigation-B-Low-All	2	0.000000	0.050000	573.000000
	3879564	10220	Irrigation-B-Med-All	2	0.000000	0.150000	368.000000
	3879564	10230	Irrigation-B-High-All	2	0.000000	0.290000	185.000000
	3879564	10310	Irrigation-C-Low-All	2	0.000000	0.050000	573.000000
	3879564	10320	Irrigation-C-Med-All	2	0.000000	0.150000	368.000000
	3879564	10330	Irrigation-C-High-All	2	0.000000	0.290000	185.000000
	3879564	10410	Irrigation-D-Low-All	2	0.000000	0.050000	573.000000
	3879564	10420	Irrigation-D-Med-All	2	0.000000	0.150000	368.000000
	3879564	10430	Irrigation-D-High-All	2	0.000000	0.290000	185.000000
	3879566	1000	Developed_Impervious-All-All-All	1	0.137109	0.170000	298.000000
	3879566	2110	Developed_Pervious-A-Low-All	2	0.000000	0.050000	573.000000
	3879566	2120	Developed_Pervious-A-Med-All	2	0.000000	0.150000	368.000000
	3879566	2130	Developed_Pervious-A-High-All	2	0.000000	0.300000	178.000000
	3879566	2210	Developed_Pervious-B-Low-All	2	0.000000	0.050000	573.000000
	3879566	2220	Developed_Pervious-B-Med-All	2	0.000000	0.150000	368.000000
	3879566	2230	Developed_Pervious-B-High-All	2	0.000000	0.300000	178.000000
	3879566	2310	Developed_Pervious-C-Low-All	2	0.888586	0.040000	573.000000
	3879566	2320	Developed_Pervious-C-Med-All	2	3.264509	0.110000	411.000000
	3879566	2330	Developed_Pervious-C-High-All	2	5.720866	0.290000	185.000000
	3879566	2410	Developed_Pervious-D-Low-All	2	0.889266	0.040000	573.000000
	3879566	2420	Developed_Pervious-D-Med-All	2	3.334300	0.110000	404.000000
	3879566	2430	Developed_Pervious-D-High-All	2	2.222516	0.180000	284.000000
	3879566	3110	Barren-A-Low-All	2	0.000000	0.050000	573.000000
	3879566	3120	Barren-A-Med-All	2	0.000000	0.150000	368.000000
	3879566	3130	Barren-A-High-All	2	0.000000	0.300000	178.000000
	3879566	3210	Barren-B-Low-All	2	0.000000	0.050000	573.000000
	3879566	3220	Barren-B-Med-All	2	0.000000	0.150000	368.000000
	3879566	3230	Barren-B-High-All	2	0.000000	0.300000	178.000000
	3879566	3310	Barren-C-Low-All	2	0.000000	0.050000	573.000000
	3879566	3320	Barren-C-Med-All	2	0.000000	0.150000	368.000000
	3879566	3330	Barren-C-High-All	2	0.000000	0.300000	178.000000
	3879566	3410	Barren-D-Low-All	2	0.000000	0.050000	573.000000
	3879566	3420	Barren-D-Med-All	2	0.000000	0.150000	368.000000
	3879566	3430	Barren-D-High-All	2	0.000000	0.300000	178.000000
	3879566	4110	Forest-A-Low-All	2	0.000000	0.050000	573.000000
	3879566	4120	Forest-A-Med-All	2	0.000000	0.150000	368.000000
	3879566	4130	Forest-A-High-All	2	0.000000	0.300000	178.000000
	3879566	4210	Forest-B-Low-All	2	0.000000	0.050000	573.000000
	3879566	4220	Forest-B-Med-All	2	0.000000	0.150000	368.000000
	3879566	4230	Forest-B-High-All	2	0.000000	0.300000	178.000000
	3879566	4310	Forest-C-Low-All	2	9.340546	0.030000	615.000000
	3879566	4320	Forest-C-Med-All	2	4.447879	0.100000	425.000000
	3879566	4330	Forest-C-High-All	2	87.845612	0.440000	121.000000
	3879566	4410	Forest-D-Low-All	2	0.000000	0.050000	573.000000
	3879566	4420	Forest-D-Med-All	2	0.000000	0.150000	368.000000
	3879566	4430	Forest-D-High-All	2	0.667182	0.290000	178.000000
	3879566	5110	Scrub-A-Low-All	2	0.000000	0.050000	573.000000
	3879566	5120	Scrub-A-Med-All	2	0.000000	0.150000	368.000000
	3879566	5130	Scrub-A-High-All	2	0.000000	0.300000	178.000000
	3879566	5210	Scrub-B-Low-All	2	3.335909	0.030000	601.000000
	3879566	5220	Scrub-B-Med-All	2	9.785334	0.100000	432.000000
	3879566	5230	Scrub-B-High-All	2	8.006182	0.220000	241.000000
	3879566	5310	Scrub-C-Low-All	2	15.567577	0.030000	601.000000
	3879566	5320	Scrub-C-Med-All	2	65.606216	0.100000	418.000000
	3879566	5330	Scrub-C-High-All	2	354.940750	0.360000	149.000000
	3879566	5410	Scrub-D-Low-All	2	1.111970	0.030000	594.000000
	3879566	5420	Scrub-D-Med-All	2	22.906577	0.110000	396.000000
	3879566	5430	Scrub-D-High-All	2	49.593852	0.240000	220.000000
	3879566	6110	Grassland-A-Low-All	2	0.000000	0.050000	573.000000
	3879566	6120	Grassland-A-Med-All	2	0.000000	0.150000	368.000000
	3879566	6130	Grassland-A-High-All	2	0.000000	0.300000	178.000000
	3879566	6210	Grassland-B-Low-All	2	0.000000	0.050000	573.000000
	3879566	6220	Grassland-B-Med-All	2	0.667182	0.120000	396.000000
	3879566	6230	Grassland-B-High-All	2	8.450970	0.290000	185.000000
	3879566	6310	Grassland-C-Low-All	2	6.449425	0.020000	622.000000
	3879566	6320	Grassland-C-Med-All	2	5.337455	0.100000	418.000000
	3879566	6330	Grassland-C-High-All	2	39.808518	0.320000	164.000000
	3879566	6410	Grassland-D-Low-All	2	0.000000	0.050000	573.000000
	3879566	6420	Grassland-D-Med-All	2	0.444788	0.070000	516.000000
	3879566	6430	Grassland-D-High-All	2	6.449425	0.280000	192.000000
	3879566	7110	Pasture-A-Low-All	2	0.000000	0.050000	573.000000
	3879566	7120	Pasture-A-Med-All	2	0.000000	0.150000	368.000000
	3879566	7130	Pasture-A-High-All	2	0.000000	0.300000	178.000000
	3879566	7210	Pasture-B-Low-All	2	0.000000	0.050000	573.000000
	3879566	7220	Pasture-B-Med-All	2	0.000000	0.150000	368.000000
	3879566	7230	Pasture-B-High-All	2	0.444788	0.260000	213.000000
	3879566	7310	Pasture-C-Low-All	2	1.556758	0.020000	629.000000
	3879566	7320	Pasture-C-Med-All	2	0.667182	0.120000	382.000000
	3879566	7330	Pasture-C-High-All	2	13.343637	0.400000	135.000000
	3879566	7410	Pasture-D-Low-All	2	0.000000	0.050000	573.000000
	3879566	7420	Pasture-D-Med-All	2	0.000000	0.150000	368.000000
	3879566	7430	Pasture-D-High-All	2	1.111970	0.420000	128.000000
	3879566	8110	Agriculture-A-Low-All	2	0.000000	0.050000	573.000000
	3879566	8120	Agriculture-A-Med-All	2	0.000000	0.150000	368.000000
	3879566	8130	Agriculture-A-High-All	2	0.000000	0.300000	178.000000
	3879566	8210	Agriculture-B-Low-All	2	0.000000	0.050000	573.000000
	3879566	8220	Agriculture-B-Med-All	2	0.000000	0.150000	368.000000
	3879566	8230	Agriculture-B-High-All	2	0.000000	0.300000	178.000000
	3879566	8310	Agriculture-C-Low-All	2	0.000000	0.050000	573.000000
	3879566	8320	Agriculture-C-Med-All	2	0.667182	0.080000	467.000000
	3879566	8330	Agriculture-C-High-All	2	0.000000	0.300000	178.000000
	3879566	8410	Agriculture-D-Low-All	2	0.000000	0.050000	573.000000
	3879566	8420	Agriculture-D-Med-All	2	0.000000	0.150000	368.000000
	3879566	8430	Agriculture-D-High-All	2	0.000000	0.300000	178.000000
	3879566	9000	Water-All-All-All	2	0.000000	0.300000	178.000000
	3879566	10110	Irrigation-A-Low-All	2	0.000000	0.050000	573.000000
	3879566	10120	Irrigation-A-Med-All	2	0.000000	0.150000	368.000000
	3879566	10130	Irrigation-A-High-All	2	0.000000	0.300000	178.000000
	3879566	10210	Irrigation-B-Low-All	2	0.000000	0.050000	573.000000
	3879566	10220	Irrigation-B-Med-All	2	0.000000	0.150000	368.000000
	3879566	10230	Irrigation-B-High-All	2	0.000000	0.300000	178.000000
	3879566	10310	Irrigation-C-Low-All	2	0.000000	0.050000	573.000000
	3879566	10320	Irrigation-C-Med-All	2	0.000000	0.150000	368.000000
	3879566	10330	Irrigation-C-High-All	2	0.000000	0.300000	178.000000
	3879566	10410	Irrigation-D-Low-All	2	0.000000	0.050000	573.000000
	3879566	10420	Irrigation-D-Med-All	2	0.000000	0.150000	368.000000
	3879566	10430	Irrigation-D-High-All	2	0.000000	0.300000	178.000000
	3879568	1000	Developed_Impervious-All-All-All	1	0.118783	0.240000	220.000000
	3879568	2110	Developed_Pervious-A-Low-All	2	0.000000	0.050000	573.000000
	3879568	2120	Developed_Pervious-A-Med-All	2	0.000000	0.150000	368.000000
	3879568	2130	Developed_Pervious-A-High-All	2	0.000000	0.310000	171.000000
	3879568	2210	Developed_Pervious-B-Low-All	2	0.000000	0.050000	573.000000
	3879568	2220	Developed_Pervious-B-Med-All	2	0.000000	0.150000	368.000000
	3879568	2230	Developed_Pervious-B-High-All	2	0.000000	0.310000	171.000000
	3879568	2310	Developed_Pervious-C-Low-All	2	0.783375	0.030000	601.000000
	3879568	2320	Developed_Pervious-C-Med-All	2	4.888103	0.090000	446.000000
	3879568	2330	Developed_Pervious-C-High-All	2	11.111680	0.320000	164.000000
	3879568	2410	Developed_Pervious-D-Low-All	2	0.000000	0.050000	573.000000
	3879568	2420	Developed_Pervious-D-Med-All	2	0.000000	0.150000	368.000000
	3879568	2430	Developed_Pervious-D-High-All	2	0.000000	0.310000	171.000000
	3879568	3110	Barren-A-Low-All	2	0.000000	0.050000	573.000000
	3879568	3120	Barren-A-Med-All	2	0.000000	0.150000	368.000000
	3879568	3130	Barren-A-High-All	2	0.000000	0.310000	171.000000
	3879568	3210	Barren-B-Low-All	2	0.000000	0.050000	573.000000
	3879568	3220	Barren-B-Med-All	2	0.000000	0.150000	368.000000
	3879568	3230	Barren-B-High-All	2	0.000000	0.310000	171.000000
	3879568	3310	Barren-C-Low-All	2	0.000000	0.050000	573.000000
	3879568	3320	Barren-C-Med-All	2	0.000000	0.150000	368.000000
	3879568	3330	Barren-C-High-All	2	0.000000	0.310000	171.000000
	3879568	3410	Barren-D-Low-All	2	0.000000	0.050000	573.000000
	3879568	3420	Barren-D-Med-All	2	0.000000	0.150000	368.000000
	3879568	3430	Barren-D-High-All	2	0.000000	0.310000	171.000000
	3879568	4110	Forest-A-Low-All	2	0.000000	0.050000	573.000000
	3879568	4120	Forest-A-Med-All	2	0.000000	0.150000	368.000000
	3879568	4130	Forest-A-High-All	2	0.000000	0.310000	171.000000
	3879568	4210	Forest-B-Low-All	2	0.000000	0.050000	573.000000
	3879568	4220	Forest-B-Med-All	2	0.444788	0.130000	382.000000
	3879568	4230	Forest-B-High-All	2	4.892667	0.490000	121.000000
	3879568	4310	Forest-C-Low-All	2	7.116607	0.030000	608.000000
	3879568	4320	Forest-C-Med-All	2	12.231667	0.090000	439.000000
	3879568	4330	Forest-C-High-All	2	202.823286	0.400000	135.000000
	3879568	4410	Forest-D-Low-All	2	0.222394	0.030000	594.000000
	3879568	4420	Forest-D-Med-All	2	1.334364	0.130000	382.000000
	3879568	4430	Forest-D-High-All	2	18.458698	0.300000	178.000000
	3879568	5110	Scrub-A-Low-All	2	0.000000	0.050000	573.000000
	3879568	5120	Scrub-A-Med-All	2	0.000000	0.150000	368.000000
	3879568	5130	Scrub-A-High-All	2	0.000000	0.310000	171.000000
	3879568	5210	Scrub-B-Low-All	2	2.223940	0.030000	594.000000
	3879568	5220	Scrub-B-Med-All	2	10.897304	0.110000	418.000000
	3879568	5230	Scrub-B-High-All	2	13.121243	0.290000	178.000000
	3879568	5310	Scrub-C-Low-All	2	3.558303	0.030000	622.000000
	3879568	5320	Scrub-C-Med-All	2	18.236304	0.110000	404.000000
	3879568	5330	Scrub-C-High-All	2	68.274944	0.320000	171.000000
	3879568	5410	Scrub-D-Low-All	2	0.889576	0.040000	573.000000
	3879568	5420	Scrub-D-Med-All	2	8.895758	0.110000	411.000000
	3879568	5430	Scrub-D-High-All	2	21.794607	0.230000	227.000000
	3879568	6110	Grassland-A-Low-All	2	0.000000	0.050000	573.000000
	3879568	6120	Grassland-A-Med-All	2	0.000000	0.150000	368.000000
	3879568	6130	Grassland-A-High-All	2	0.000000	0.310000	171.000000
	3879568	6210	Grassland-B-Low-All	2	0.000000	0.050000	573.000000
	3879568	6220	Grassland-B-Med-All	2	0.000000	0.150000	368.000000
	3879568	6230	Grassland-B-High-All	2	0.000000	0.310000	171.000000
	3879568	6310	Grassland-C-Low-All	2	0.444788	0.030000	601.000000
	3879568	6320	Grassland-C-Med-All	2	0.000000	0.150000	368.000000
	3879568	6330	Grassland-C-High-All	2	0.667182	0.290000	178.000000
	3879568	6410	Grassland-D-Low-All	2	0.000000	0.050000	573.000000
	3879568	6420	Grassland-D-Med-All	2	1.334364	0.100000	418.000000
	3879568	6430	Grassland-D-High-All	2	2.668727	0.200000	262.000000
	3879568	7110	Pasture-A-Low-All	2	0.000000	0.050000	573.000000
	3879568	7120	Pasture-A-Med-All	2	0.000000	0.150000	368.000000
	3879568	7130	Pasture-A-High-All	2	0.000000	0.310000	171.000000
	3879568	7210	Pasture-B-Low-All	2	0.000000	0.050000	573.000000
	3879568	7220	Pasture-B-Med-All	2	0.000000	0.150000	368.000000
	3879568	7230	Pasture-B-High-All	2	0.000000	0.310000	171.000000
	3879568	7310	Pasture-C-Low-All	2	0.222394	0.040000	580.000000
	3879568	7320	Pasture-C-Med-All	2	0.667182	0.060000	516.000000
	3879568	7330	Pasture-C-High-All	2	0.667182	0.330000	164.000000
	3879568	7410	Pasture-D-Low-All	2	0.000000	0.050000	573.000000
	3879568	7420	Pasture-D-Med-All	2	0.000000	0.150000	368.000000
	3879568	7430	Pasture-D-High-All	2	0.000000	0.310000	171.000000
	3879568	8110	Agriculture-A-Low-All	2	0.000000	0.050000	573.000000
	3879568	8120	Agriculture-A-Med-All	2	0.000000	0.150000	368.000000
	3879568	8130	Agriculture-A-High-All	2	0.000000	0.310000	171.000000
	3879568	8210	Agriculture-B-Low-All	2	0.000000	0.050000	573.000000
	3879568	8220	Agriculture-B-Med-All	2	0.000000	0.150000	368.000000
	3879568	8230	Agriculture-B-High-All	2	0.000000	0.310000	171.000000
	3879568	8310	Agriculture-C-Low-All	2	0.000000	0.050000	573.000000
	3879568	8320	Agriculture-C-Med-All	2	0.000000	0.150000	368.000000
	3879568	8330	Agriculture-C-High-All	2	0.667182	0.440000	121.000000
	3879568	8410	Agriculture-D-Low-All	2	0.000000	0.050000	573.000000
	3879568	8420	Agriculture-D-Med-All	2	0.000000	0.150000	368.000000
	3879568	8430	Agriculture-D-High-All	2	0.000000	0.310000	171.000000
	3879568	9000	Water-All-All-All	2	0.000000	0.310000	171.000000
	3879568	10110	Irrigation-A-Low-All	2	0.000000	0.050000	573.000000
	3879568	10120	Irrigation-A-Med-All	2	0.000000	0.150000	368.000000
	3879568	10130	Irrigation-A-High-All	2	0.000000	0.310000	171.000000
	3879568	10210	Irrigation-B-Low-All	2	0.000000	0.050000	573.000000
	3879568	10220	Irrigation-B-Med-All	2	0.000000	0.150000	368.000000
	3879568	10230	Irrigation-B-High-All	2	0.000000	0.310000	171.000000
	3879568	10310	Irrigation-C-Low-All	2	0.000000	0.050000	573.000000
	3879568	10320	Irrigation-C-Med-All	2	0.000000	0.150000	368.000000
	3879568	10330	Irrigation-C-High-All	2	0.000000	0.310000	171.000000
	3879568	10410	Irrigation-D-Low-All	2	0.000000	0.050000	573.000000
	3879568	10420	Irrigation-D-Med-All	2	0.000000	0.150000	368.000000
	3879568	10430	Irrigation-D-High-All	2	0.000000	0.310000	171.000000
	3879720	1000	Developed_Impervious-All-All-All	1	10.734148	0.100000	432.000000
	3879720	2110	Developed_Pervious-A-Low-All	2	0.125424	0.040000	573.000000
	3879720	2120	Developed_Pervious-A-Med-All	2	0.000000	0.150000	368.000000
	3879720	2130	Developed_Pervious-A-High-All	2	0.000000	0.270000	199.000000
	3879720	2210	Developed_Pervious-B-Low-All	2	0.000000	0.050000	573.000000
	3879720	2220	Developed_Pervious-B-Med-All	2	0.000000	0.150000	368.000000
	3879720	2230	Developed_Pervious-B-High-All	2	0.000000	0.270000	199.000000
	3879720	2310	Developed_Pervious-C-Low-All	2	6.358049	0.030000	608.000000
	3879720	2320	Developed_Pervious-C-Med-All	2	15.249341	0.100000	418.000000
	3879720	2330	Developed_Pervious-C-High-All	2	5.172070	0.200000	269.000000
	3879720	2410	Developed_Pervious-D-Low-All	2	5.100202	0.030000	601.000000
	3879720	2420	Developed_Pervious-D-Med-All	2	6.773887	0.090000	453.000000
	3879720	2430	Developed_Pervious-D-High-All	2	1.415095	0.210000	248.000000
	3879720	3110	Barren-A-Low-All	2	0.000000	0.050000	573.000000
	3879720	3120	Barren-A-Med-All	2	0.000000	0.150000	368.000000
	3879720	3130	Barren-A-High-All	2	0.000000	0.270000	199.000000
	3879720	3210	Barren-B-Low-All	2	0.000000	0.050000	573.000000
	3879720	3220	Barren-B-Med-All	2	0.000000	0.150000	368.000000
	3879720	3230	Barren-B-High-All	2	0.000000	0.270000	199.000000
	3879720	3310	Barren-C-Low-All	2	0.000000	0.050000	573.000000
	3879720	3320	Barren-C-Med-All	2	0.000000	0.150000	368.000000
	3879720	3330	Barren-C-High-All	2	0.000000	0.270000	199.000000
	3879720	3410	Barren-D-Low-All	2	0.222394	0.030000	615.000000
	3879720	3420	Barren-D-Med-All	2	0.000000	0.150000	368.000000
	3879720	3430	Barren-D-High-All	2	0.222394	0.240000	227.000000
	3879720	4110	Forest-A-Low-All	2	0.000000	0.050000	573.000000
	3879720	4120	Forest-A-Med-All	2	0.000000	0.150000	368.000000
	3879720	4130	Forest-A-High-All	2	0.000000	0.270000	199.000000
	3879720	4210	Forest-B-Low-All	2	0.000000	0.050000	573.000000
	3879720	4220	Forest-B-Med-All	2	0.000000	0.150000	368.000000
	3879720	4230	Forest-B-High-All	2	0.000000	0.270000	199.000000
	3879720	4310	Forest-C-Low-All	2	5.337455	0.020000	636.000000
	3879720	4320	Forest-C-Med-All	2	6.227031	0.100000	432.000000
	3879720	4330	Forest-C-High-All	2	78.727460	0.570000	114.000000
	3879720	4410	Forest-D-Low-All	2	7.561394	0.020000	629.000000
	3879720	4420	Forest-D-Med-All	2	4.225485	0.100000	432.000000
	3879720	4430	Forest-D-High-All	2	10.230122	0.330000	164.000000
	3879720	5110	Scrub-A-Low-All	2	0.444788	0.030000	601.000000
	3879720	5120	Scrub-A-Med-All	2	0.222394	0.090000	439.000000
	3879720	5130	Scrub-A-High-All	2	0.000000	0.270000	199.000000
	3879720	5210	Scrub-B-Low-All	2	0.000000	0.050000	573.000000
	3879720	5220	Scrub-B-Med-All	2	0.000000	0.150000	368.000000
	3879720	5230	Scrub-B-High-All	2	0.000000	0.270000	199.000000
	3879720	5310	Scrub-C-Low-All	2	28.466426	0.030000	601.000000
	3879720	5320	Scrub-C-Med-All	2	88.068006	0.110000	418.000000
	3879720	5330	Scrub-C-High-All	2	316.244202	0.360000	149.000000
	3879720	5410	Scrub-D-Low-All	2	4.447879	0.030000	601.000000
	3879720	5420	Scrub-D-Med-All	2	16.012365	0.110000	411.000000
	3879720	5430	Scrub-D-High-All	2	65.606216	0.280000	192.000000
	3879720	6110	Grassland-A-Low-All	2	0.000000	0.050000	573.000000
	3879720	6120	Grassland-A-Med-All	2	0.000000	0.150000	368.000000
	3879720	6130	Grassland-A-High-All	2	0.000000	0.270000	199.000000
	3879720	6210	Grassland-B-Low-All	2	0.000000	0.050000	573.000000
	3879720	6220	Grassland-B-Med-All	2	0.000000	0.150000	368.000000
	3879720	6230	Grassland-B-High-All	2	0.000000	0.270000	199.000000
	3879720	6310	Grassland-C-Low-All	2	13.121243	0.030000	615.000000
	3879720	6320	Grassland-C-Med-All	2	11.564486	0.100000	418.000000
	3879720	6330	Grassland-C-High-All	2	37.362184	0.280000	192.000000
	3879720	6410	Grassland-D-Low-All	2	27.799244	0.020000	644.000000
	3879720	6420	Grassland-D-Med-All	2	6.227031	0.100000	439.000000
	3879720	6430	Grassland-D-High-All	2	28.688820	0.280000	185.000000
	3879720	7110	Pasture-A-Low-All	2	0.000000	0.050000	573.000000
	3879720	7120	Pasture-A-Med-All	2	0.000000	0.150000	368.000000
	3879720	7130	Pasture-A-High-All	2	0.000000	0.270000	199.000000
	3879720	7210	Pasture-B-Low-All	2	0.000000	0.050000	573.000000
	3879720	7220	Pasture-B-Med-All	2	0.000000	0.150000	368.000000
	3879720	7230	Pasture-B-High-All	2	0.000000	0.270000	199.000000
	3879720	7310	Pasture-C-Low-All	2	1.111970	0.040000	573.000000
	3879720	7320	Pasture-C-Med-All	2	4.892667	0.080000	481.000000
	3879720	7330	Pasture-C-High-All	2	5.337455	0.370000	149.000000
	3879720	7410	Pasture-D-Low-All	2	0.667182	0.030000	622.000000
	3879720	7420	Pasture-D-Med-All	2	0.444788	0.120000	396.000000
	3879720	7430	Pasture-D-High-All	2	2.223940	0.330000	164.000000
	3879720	8110	Agriculture-A-Low-All	2	0.000000	0.050000	573.000000
	3879720	8120	Agriculture-A-Med-All	2	0.000000	0.150000	368.000000
	3879720	8130	Agriculture-A-High-All	2	0.000000	0.270000	199.000000
	3879720	8210	Agriculture-B-Low-All	2	0.000000	0.050000	573.000000
	3879720	8220	Agriculture-B-Med-All	2	0.000000	0.150000	368.000000
	3879720	8230	Agriculture-B-High-All	2	0.000000	0.270000	199.000000
	3879720	8310	Agriculture-C-Low-All	2	0.222394	0.010000	658.000000
	3879720	8320	Agriculture-C-Med-All	2	0.889576	0.080000	467.000000
	3879720	8330	Agriculture-C-High-All	2	1.334364	0.330000	164.000000
	3879720	8410	Agriculture-D-Low-All	2	1.111970	0.030000	615.000000
	3879720	8420	Agriculture-D-Med-All	2	0.000000	0.150000	368.000000
	3879720	8430	Agriculture-D-High-All	2	0.222394	0.360000	149.000000
	3879720	9000	Water-All-All-All	2	14.010819	0.030000	594.000000
	3879720	10110	Irrigation-A-Low-All	2	0.000000	0.050000	573.000000
	3879720	10120	Irrigation-A-Med-All	2	0.000000	0.150000	368.000000
	3879720	10130	Irrigation-A-High-All	2	0.000000	0.270000	199.000000
	3879720	10210	Irrigation-B-Low-All	2	0.000000	0.050000	573.000000
	3879720	10220	Irrigation-B-Med-All	2	0.000000	0.150000	368.000000
	3879720	10230	Irrigation-B-High-All	2	0.000000	0.270000	199.000000
	3879720	10310	Irrigation-C-Low-All	2	0.000000	0.050000	573.000000
	3879720	10320	Irrigation-C-Med-All	2	0.000000	0.150000	368.000000
	3879720	10330	Irrigation-C-High-All	2	0.000000	0.270000	199.000000
	3879720	10410	Irrigation-D-Low-All	2	0.000000	0.050000	573.000000
	3879720	10420	Irrigation-D-Med-All	2	0.000000	0.150000	368.000000
	3879720	10430	Irrigation-D-High-All	2	0.000000	0.270000	199.000000
	3879750	1000	Developed_Impervious-All-All-All	1	0.001196	0.160000	368.000000
	3879750	2110	Developed_Pervious-A-Low-All	2	0.000000	0.050000	573.000000
	3879750	2120	Developed_Pervious-A-Med-All	2	0.000000	0.150000	368.000000
	3879750	2130	Developed_Pervious-A-High-All	2	0.000000	0.250000	220.000000
	3879750	2210	Developed_Pervious-B-Low-All	2	0.000000	0.050000	573.000000
	3879750	2220	Developed_Pervious-B-Med-All	2	0.000000	0.150000	368.000000
	3879750	2230	Developed_Pervious-B-High-All	2	0.000000	0.250000	220.000000
	3879750	2310	Developed_Pervious-C-Low-All	2	0.666530	0.030000	587.000000
	3879750	2320	Developed_Pervious-C-Med-All	2	0.444679	0.070000	516.000000
	3879750	2330	Developed_Pervious-C-High-All	2	0.889141	0.310000	178.000000
	3879750	2410	Developed_Pervious-D-Low-All	2	0.000000	0.050000	573.000000
	3879750	2420	Developed_Pervious-D-Med-All	2	0.000000	0.150000	368.000000
	3879750	2430	Developed_Pervious-D-High-All	2	0.000000	0.250000	220.000000
	3879750	3110	Barren-A-Low-All	2	0.000000	0.050000	573.000000
	3879750	3120	Barren-A-Med-All	2	0.000000	0.150000	368.000000
	3879750	3130	Barren-A-High-All	2	0.000000	0.250000	220.000000
	3879750	3210	Barren-B-Low-All	2	0.000000	0.050000	573.000000
	3879750	3220	Barren-B-Med-All	2	0.000000	0.150000	368.000000
	3879750	3230	Barren-B-High-All	2	0.000000	0.250000	220.000000
	3879750	3310	Barren-C-Low-All	2	0.000000	0.050000	573.000000
	3879750	3320	Barren-C-Med-All	2	0.000000	0.150000	368.000000
	3879750	3330	Barren-C-High-All	2	0.000000	0.250000	220.000000
	3879750	3410	Barren-D-Low-All	2	0.000000	0.050000	573.000000
	3879750	3420	Barren-D-Med-All	2	0.000000	0.150000	368.000000
	3879750	3430	Barren-D-High-All	2	0.000000	0.250000	220.000000
	3879750	4110	Forest-A-Low-All	2	0.000000	0.050000	573.000000
	3879750	4120	Forest-A-Med-All	2	0.000000	0.150000	368.000000
	3879750	4130	Forest-A-High-All	2	0.000000	0.250000	220.000000
	3879750	4210	Forest-B-Low-All	2	0.000000	0.050000	573.000000
	3879750	4220	Forest-B-Med-All	2	0.000000	0.150000	368.000000
	3879750	4230	Forest-B-High-All	2	0.000000	0.250000	220.000000
	3879750	4310	Forest-C-Low-All	2	0.667182	0.020000	651.000000
	3879750	4320	Forest-C-Med-All	2	0.222394	0.140000	368.000000
	3879750	4330	Forest-C-High-All	2	2.001546	0.420000	128.000000
	3879750	4410	Forest-D-Low-All	2	0.000000	0.050000	573.000000
	3879750	4420	Forest-D-Med-All	2	0.000000	0.150000	368.000000
	3879750	4430	Forest-D-High-All	2	0.000000	0.250000	220.000000
	3879750	5110	Scrub-A-Low-All	2	0.000000	0.050000	573.000000
	3879750	5120	Scrub-A-Med-All	2	0.000000	0.150000	368.000000
	3879750	5130	Scrub-A-High-All	2	0.000000	0.250000	220.000000
	3879750	5210	Scrub-B-Low-All	2	0.000000	0.050000	573.000000
	3879750	5220	Scrub-B-Med-All	2	0.000000	0.150000	368.000000
	3879750	5230	Scrub-B-High-All	2	0.000000	0.250000	220.000000
	3879750	5310	Scrub-C-Low-All	2	0.444788	0.030000	615.000000
	3879750	5320	Scrub-C-Med-All	2	0.222394	0.120000	389.000000
	3879750	5330	Scrub-C-High-All	2	1.334364	0.340000	156.000000
	3879750	5410	Scrub-D-Low-All	2	0.000000	0.050000	573.000000
	3879750	5420	Scrub-D-Med-All	2	0.000000	0.150000	368.000000
	3879750	5430	Scrub-D-High-All	2	0.000000	0.250000	220.000000
	3879750	6110	Grassland-A-Low-All	2	0.000000	0.050000	573.000000
	3879750	6120	Grassland-A-Med-All	2	0.000000	0.150000	368.000000
	3879750	6130	Grassland-A-High-All	2	0.000000	0.250000	220.000000
	3879750	6210	Grassland-B-Low-All	2	0.000000	0.050000	573.000000
	3879750	6220	Grassland-B-Med-All	2	0.000000	0.150000	368.000000
	3879750	6230	Grassland-B-High-All	2	0.000000	0.250000	220.000000
	3879750	6310	Grassland-C-Low-All	2	0.000000	0.050000	573.000000
	3879750	6320	Grassland-C-Med-All	2	0.000000	0.150000	368.000000
	3879750	6330	Grassland-C-High-All	2	0.000000	0.250000	220.000000
	3879750	6410	Grassland-D-Low-All	2	0.000000	0.050000	573.000000
	3879750	6420	Grassland-D-Med-All	2	0.000000	0.150000	368.000000
	3879750	6430	Grassland-D-High-All	2	0.000000	0.250000	220.000000
	3879750	7110	Pasture-A-Low-All	2	0.000000	0.050000	573.000000
	3879750	7120	Pasture-A-Med-All	2	0.000000	0.150000	368.000000
	3879750	7130	Pasture-A-High-All	2	0.000000	0.250000	220.000000
	3879750	7210	Pasture-B-Low-All	2	0.000000	0.050000	573.000000
	3879750	7220	Pasture-B-Med-All	2	0.000000	0.150000	368.000000
	3879750	7230	Pasture-B-High-All	2	0.000000	0.250000	220.000000
	3879750	7310	Pasture-C-Low-All	2	0.000000	0.050000	573.000000
	3879750	7320	Pasture-C-Med-All	2	0.000000	0.150000	368.000000
	3879750	7330	Pasture-C-High-All	2	0.000000	0.250000	220.000000
	3879750	7410	Pasture-D-Low-All	2	0.000000	0.050000	573.000000
	3879750	7420	Pasture-D-Med-All	2	0.000000	0.150000	368.000000
	3879750	7430	Pasture-D-High-All	2	0.000000	0.250000	220.000000
	3879750	8110	Agriculture-A-Low-All	2	0.000000	0.050000	573.000000
	3879750	8120	Agriculture-A-Med-All	2	0.000000	0.150000	368.000000
	3879750	8130	Agriculture-A-High-All	2	0.000000	0.250000	220.000000
	3879750	8210	Agriculture-B-Low-All	2	0.000000	0.050000	573.000000
	3879750	8220	Agriculture-B-Med-All	2	0.000000	0.150000	368.000000
	3879750	8230	Agriculture-B-High-All	2	0.000000	0.250000	220.000000
	3879750	8310	Agriculture-C-Low-All	2	0.000000	0.050000	573.000000
	3879750	8320	Agriculture-C-Med-All	2	0.000000	0.150000	368.000000
	3879750	8330	Agriculture-C-High-All	2	0.000000	0.250000	220.000000
	3879750	8410	Agriculture-D-Low-All	2	0.000000	0.050000	573.000000
	3879750	8420	Agriculture-D-Med-All	2	0.000000	0.150000	368.000000
	3879750	8430	Agriculture-D-High-All	2	0.000000	0.250000	220.000000
	3879750	9000	Water-All-All-All	2	0.000000	0.250000	220.000000
	3879750	10110	Irrigation-A-Low-All	2	0.000000	0.050000	573.000000
	3879750	10120	Irrigation-A-Med-All	2	0.000000	0.150000	368.000000
	3879750	10130	Irrigation-A-High-All	2	0.000000	0.250000	220.000000
	3879750	10210	Irrigation-B-Low-All	2	0.000000	0.050000	573.000000
	3879750	10220	Irrigation-B-Med-All	2	0.000000	0.150000	368.000000
	3879750	10230	Irrigation-B-High-All	2	0.000000	0.250000	220.000000
	3879750	10310	Irrigation-C-Low-All	2	0.000000	0.050000	573.000000
	3879750	10320	Irrigation-C-Med-All	2	0.000000	0.150000	368.000000
	3879750	10330	Irrigation-C-High-All	2	0.000000	0.250000	220.000000
	3879750	10410	Irrigation-D-Low-All	2	0.000000	0.050000	573.000000
	3879750	10420	Irrigation-D-Med-All	2	0.000000	0.150000	368.000000
	3879750	10430	Irrigation-D-High-All	2	0.000000	0.250000	220.000000
	3879966	1000	Developed_Impervious-All-All-All	1	0.301446	0.110000	396.000000
	3879966	2110	Developed_Pervious-A-Low-All	2	0.000000	0.050000	573.000000
	3879966	2120	Developed_Pervious-A-Med-All	2	0.000000	0.150000	368.000000
	3879966	2130	Developed_Pervious-A-High-All	2	0.000000	0.190000	284.000000
	3879966	2210	Developed_Pervious-B-Low-All	2	4.607948	0.040000	587.000000
	3879966	2220	Developed_Pervious-B-Med-All	2	7.105537	0.100000	432.000000
	3879966	2230	Developed_Pervious-B-High-All	2	4.887481	0.210000	255.000000
	3879966	2310	Developed_Pervious-C-Low-All	2	0.000000	0.050000	573.000000
	3879966	2320	Developed_Pervious-C-Med-All	2	0.222080	0.130000	368.000000
	3879966	2330	Developed_Pervious-C-High-All	2	0.444631	0.210000	255.000000
	3879966	2410	Developed_Pervious-D-Low-All	2	0.000000	0.050000	573.000000
	3879966	2420	Developed_Pervious-D-Med-All	2	0.000000	0.150000	368.000000
	3879966	2430	Developed_Pervious-D-High-All	2	0.000000	0.190000	284.000000
	3879966	3110	Barren-A-Low-All	2	0.000000	0.050000	573.000000
	3879966	3120	Barren-A-Med-All	2	0.000000	0.150000	368.000000
	3879966	3130	Barren-A-High-All	2	0.000000	0.190000	284.000000
	3879966	3210	Barren-B-Low-All	2	0.000000	0.050000	573.000000
	3879966	3220	Barren-B-Med-All	2	0.000000	0.150000	368.000000
	3879966	3230	Barren-B-High-All	2	0.000000	0.190000	284.000000
	3879966	3310	Barren-C-Low-All	2	0.000000	0.050000	573.000000
	3879966	3320	Barren-C-Med-All	2	0.000000	0.150000	368.000000
	3879966	3330	Barren-C-High-All	2	0.000000	0.190000	284.000000
	3879966	3410	Barren-D-Low-All	2	0.000000	0.050000	573.000000
	3879966	3420	Barren-D-Med-All	2	0.000000	0.150000	368.000000
	3879966	3430	Barren-D-High-All	2	0.000000	0.190000	284.000000
	3879966	4110	Forest-A-Low-All	2	0.000000	0.050000	573.000000
	3879966	4120	Forest-A-Med-All	2	0.000000	0.150000	368.000000
	3879966	4130	Forest-A-High-All	2	0.000000	0.190000	284.000000
	3879966	4210	Forest-B-Low-All	2	9.340546	0.030000	594.000000
	3879966	4220	Forest-B-Med-All	2	18.903486	0.100000	418.000000
	3879966	4230	Forest-B-High-All	2	70.498883	0.270000	199.000000
	3879966	4310	Forest-C-Low-All	2	0.889576	0.030000	601.000000
	3879966	4320	Forest-C-Med-All	2	2.223940	0.090000	446.000000
	3879966	4330	Forest-C-High-All	2	9.340546	0.250000	213.000000
	3879966	4410	Forest-D-Low-All	2	0.000000	0.050000	573.000000
	3879966	4420	Forest-D-Med-All	2	0.000000	0.150000	368.000000
	3879966	4430	Forest-D-High-All	2	0.000000	0.190000	284.000000
	3879966	5110	Scrub-A-Low-All	2	0.000000	0.050000	573.000000
	3879966	5120	Scrub-A-Med-All	2	0.000000	0.150000	368.000000
	3879966	5130	Scrub-A-High-All	2	0.000000	0.190000	284.000000
	3879966	5210	Scrub-B-Low-All	2	0.222394	0.030000	601.000000
	3879966	5220	Scrub-B-Med-All	2	16.679547	0.120000	389.000000
	3879966	5230	Scrub-B-High-All	2	29.133608	0.220000	241.000000
	3879966	5310	Scrub-C-Low-All	2	0.667182	0.030000	601.000000
	3879966	5320	Scrub-C-Med-All	2	7.116607	0.110000	411.000000
	3879966	5330	Scrub-C-High-All	2	10.230122	0.230000	227.000000
	3879966	5410	Scrub-D-Low-All	2	0.000000	0.050000	573.000000
	3879966	5420	Scrub-D-Med-All	2	0.000000	0.150000	368.000000
	3879966	5430	Scrub-D-High-All	2	0.000000	0.190000	284.000000
	3879966	6110	Grassland-A-Low-All	2	0.000000	0.050000	573.000000
	3879966	6120	Grassland-A-Med-All	2	0.000000	0.150000	368.000000
	3879966	6130	Grassland-A-High-All	2	0.000000	0.190000	284.000000
	3879966	6210	Grassland-B-Low-All	2	0.000000	0.050000	573.000000
	3879966	6220	Grassland-B-Med-All	2	1.556758	0.120000	382.000000
	3879966	6230	Grassland-B-High-All	2	2.891121	0.300000	178.000000
	3879966	6310	Grassland-C-Low-All	2	1.334364	0.040000	573.000000
	3879966	6320	Grassland-C-Med-All	2	4.447879	0.100000	432.000000
	3879966	6330	Grassland-C-High-All	2	4.225485	0.300000	178.000000
	3879966	6410	Grassland-D-Low-All	2	0.000000	0.050000	573.000000
	3879966	6420	Grassland-D-Med-All	2	0.000000	0.150000	368.000000
	3879966	6430	Grassland-D-High-All	2	0.000000	0.190000	284.000000
	3879966	7110	Pasture-A-Low-All	2	0.000000	0.050000	573.000000
	3879966	7120	Pasture-A-Med-All	2	0.000000	0.150000	368.000000
	3879966	7130	Pasture-A-High-All	2	0.000000	0.190000	284.000000
	3879966	7210	Pasture-B-Low-All	2	0.000000	0.050000	573.000000
	3879966	7220	Pasture-B-Med-All	2	0.889576	0.100000	418.000000
	3879966	7230	Pasture-B-High-All	2	2.223940	0.240000	227.000000
	3879966	7310	Pasture-C-Low-All	2	0.444788	0.040000	573.000000
	3879966	7320	Pasture-C-Med-All	2	0.667182	0.080000	467.000000
	3879966	7330	Pasture-C-High-All	2	0.667182	0.370000	142.000000
	3879966	7410	Pasture-D-Low-All	2	0.000000	0.050000	573.000000
	3879966	7420	Pasture-D-Med-All	2	0.000000	0.150000	368.000000
	3879966	7430	Pasture-D-High-All	2	0.000000	0.190000	284.000000
	3879966	8110	Agriculture-A-Low-All	2	0.000000	0.050000	573.000000
	3879966	8120	Agriculture-A-Med-All	2	0.000000	0.150000	368.000000
	3879966	8130	Agriculture-A-High-All	2	0.000000	0.190000	284.000000
	3879966	8210	Agriculture-B-Low-All	2	0.000000	0.050000	573.000000
	3879966	8220	Agriculture-B-Med-All	2	4.536837	0.100000	418.000000
	3879966	8230	Agriculture-B-High-All	2	4.347802	0.190000	284.000000
	3879966	8310	Agriculture-C-Low-All	2	0.000000	0.050000	573.000000
	3879966	8320	Agriculture-C-Med-All	2	0.189035	0.110000	404.000000
	3879966	8330	Agriculture-C-High-All	2	0.000000	0.190000	284.000000
	3879966	8410	Agriculture-D-Low-All	2	0.000000	0.050000	573.000000
	3879966	8420	Agriculture-D-Med-All	2	0.000000	0.150000	368.000000
	3879966	8430	Agriculture-D-High-All	2	0.000000	0.190000	284.000000
	3879966	9000	Water-All-All-All	2	0.000000	0.190000	284.000000
	3879966	10110	Irrigation-A-Low-All	2	0.000000	0.050000	573.000000
	3879966	10120	Irrigation-A-Med-All	2	0.000000	0.150000	368.000000
	3879966	10130	Irrigation-A-High-All	2	0.000000	0.190000	284.000000
	3879966	10210	Irrigation-B-Low-All	2	0.000000	0.050000	573.000000
	3879966	10220	Irrigation-B-Med-All	2	0.800618	0.150000	368.000000
	3879966	10230	Irrigation-B-High-All	2	0.767259	0.190000	284.000000
	3879966	10310	Irrigation-C-Low-All	2	0.000000	0.050000	573.000000
	3879966	10320	Irrigation-C-Med-All	2	0.033359	0.150000	368.000000
	3879966	10330	Irrigation-C-High-All	2	0.000000	0.190000	284.000000
	3879966	10410	Irrigation-D-Low-All	2	0.000000	0.050000	573.000000
	3879966	10420	Irrigation-D-Med-All	2	0.000000	0.150000	368.000000
	3879966	10430	Irrigation-D-High-All	2	0.000000	0.190000	284.000000
	3879968	1000	Developed_Impervious-All-All-All	1	0.001668	0.150000	368.000000
	3879968	2110	Developed_Pervious-A-Low-All	2	0.000000	0.050000	573.000000
	3879968	2120	Developed_Pervious-A-Med-All	2	0.000000	0.150000	368.000000
	3879968	2130	Developed_Pervious-A-High-All	2	0.000000	0.270000	199.000000
	3879968	2210	Developed_Pervious-B-Low-All	2	0.222338	0.030000	608.000000
	3879968	2220	Developed_Pervious-B-Med-All	2	1.333252	0.120000	382.000000
	3879968	2230	Developed_Pervious-B-High-All	2	1.111469	0.210000	255.000000
	3879968	2310	Developed_Pervious-C-Low-All	2	0.000000	0.050000	573.000000
	3879968	2320	Developed_Pervious-C-Med-All	2	0.000000	0.150000	368.000000
	3879968	2330	Developed_Pervious-C-High-All	2	0.000000	0.270000	199.000000
	3879968	2410	Developed_Pervious-D-Low-All	2	0.000000	0.050000	573.000000
	3879968	2420	Developed_Pervious-D-Med-All	2	0.000000	0.150000	368.000000
	3879968	2430	Developed_Pervious-D-High-All	2	0.000000	0.270000	199.000000
	3879968	3110	Barren-A-Low-All	2	0.000000	0.050000	573.000000
	3879968	3120	Barren-A-Med-All	2	0.000000	0.150000	368.000000
	3879968	3130	Barren-A-High-All	2	0.000000	0.270000	199.000000
	3879968	3210	Barren-B-Low-All	2	0.000000	0.050000	573.000000
	3879968	3220	Barren-B-Med-All	2	0.000000	0.150000	368.000000
	3879968	3230	Barren-B-High-All	2	0.000000	0.270000	199.000000
	3879968	3310	Barren-C-Low-All	2	0.000000	0.050000	573.000000
	3879968	3320	Barren-C-Med-All	2	0.000000	0.150000	368.000000
	3879968	3330	Barren-C-High-All	2	0.000000	0.270000	199.000000
	3879968	3410	Barren-D-Low-All	2	0.000000	0.050000	573.000000
	3879968	3420	Barren-D-Med-All	2	0.000000	0.150000	368.000000
	3879968	3430	Barren-D-High-All	2	0.000000	0.270000	199.000000
	3879968	4110	Forest-A-Low-All	2	0.000000	0.050000	573.000000
	3879968	4120	Forest-A-Med-All	2	0.000000	0.150000	368.000000
	3879968	4130	Forest-A-High-All	2	0.000000	0.270000	199.000000
	3879968	4210	Forest-B-Low-All	2	0.222394	0.030000	622.000000
	3879968	4220	Forest-B-Med-All	2	4.447879	0.110000	411.000000
	3879968	4230	Forest-B-High-All	2	51.595397	0.330000	156.000000
	3879968	4310	Forest-C-Low-All	2	2.668727	0.040000	587.000000
	3879968	4320	Forest-C-Med-All	2	6.894213	0.100000	432.000000
	3879968	4330	Forest-C-High-All	2	46.480336	0.290000	178.000000
	3879968	4410	Forest-D-Low-All	2	0.000000	0.050000	573.000000
	3879968	4420	Forest-D-Med-All	2	0.000000	0.150000	368.000000
	3879968	4430	Forest-D-High-All	2	0.000000	0.270000	199.000000
	3879968	5110	Scrub-A-Low-All	2	0.000000	0.050000	573.000000
	3879968	5120	Scrub-A-Med-All	2	0.000000	0.150000	368.000000
	3879968	5130	Scrub-A-High-All	2	0.000000	0.270000	199.000000
	3879968	5210	Scrub-B-Low-All	2	0.000000	0.050000	573.000000
	3879968	5220	Scrub-B-Med-All	2	1.779152	0.130000	382.000000
	3879968	5230	Scrub-B-High-All	2	4.447879	0.340000	156.000000
	3879968	5310	Scrub-C-Low-All	2	1.334364	0.040000	580.000000
	3879968	5320	Scrub-C-Med-All	2	5.115061	0.090000	439.000000
	3879968	5330	Scrub-C-High-All	2	21.794607	0.260000	206.000000
	3879968	5410	Scrub-D-Low-All	2	0.000000	0.050000	573.000000
	3879968	5420	Scrub-D-Med-All	2	0.000000	0.150000	368.000000
	3879968	5430	Scrub-D-High-All	2	0.000000	0.270000	199.000000
	3879968	6110	Grassland-A-Low-All	2	0.000000	0.050000	573.000000
	3879968	6120	Grassland-A-Med-All	2	0.000000	0.150000	368.000000
	3879968	6130	Grassland-A-High-All	2	0.000000	0.270000	199.000000
	3879968	6210	Grassland-B-Low-All	2	0.000000	0.050000	573.000000
	3879968	6220	Grassland-B-Med-All	2	0.000000	0.150000	368.000000
	3879968	6230	Grassland-B-High-All	2	0.889576	0.280000	199.000000
	3879968	6310	Grassland-C-Low-All	2	0.000000	0.050000	573.000000
	3879968	6320	Grassland-C-Med-All	2	0.000000	0.150000	368.000000
	3879968	6330	Grassland-C-High-All	2	0.222394	0.440000	121.000000
	3879968	6410	Grassland-D-Low-All	2	0.000000	0.050000	573.000000
	3879968	6420	Grassland-D-Med-All	2	0.000000	0.150000	368.000000
	3879968	6430	Grassland-D-High-All	2	0.000000	0.270000	199.000000
	3879968	7110	Pasture-A-Low-All	2	0.000000	0.050000	573.000000
	3879968	7120	Pasture-A-Med-All	2	0.000000	0.150000	368.000000
	3879968	7130	Pasture-A-High-All	2	0.000000	0.270000	199.000000
	3879968	7210	Pasture-B-Low-All	2	0.000000	0.050000	573.000000
	3879968	7220	Pasture-B-Med-All	2	0.000000	0.150000	368.000000
	3879968	7230	Pasture-B-High-All	2	0.222394	0.200000	269.000000
	3879968	7310	Pasture-C-Low-All	2	0.000000	0.050000	573.000000
	3879968	7320	Pasture-C-Med-All	2	0.000000	0.150000	368.000000
	3879968	7330	Pasture-C-High-All	2	0.667182	0.400000	135.000000
	3879968	7410	Pasture-D-Low-All	2	0.000000	0.050000	573.000000
	3879968	7420	Pasture-D-Med-All	2	0.000000	0.150000	368.000000
	3879968	7430	Pasture-D-High-All	2	0.000000	0.270000	199.000000
	3879968	8110	Agriculture-A-Low-All	2	0.000000	0.050000	573.000000
	3879968	8120	Agriculture-A-Med-All	2	0.000000	0.150000	368.000000
	3879968	8130	Agriculture-A-High-All	2	0.000000	0.270000	199.000000
	3879968	8210	Agriculture-B-Low-All	2	0.000000	0.050000	573.000000
	3879968	8220	Agriculture-B-Med-All	2	0.000000	0.150000	368.000000
	3879968	8230	Agriculture-B-High-All	2	0.000000	0.270000	199.000000
	3879968	8310	Agriculture-C-Low-All	2	0.000000	0.050000	573.000000
	3879968	8320	Agriculture-C-Med-All	2	0.000000	0.150000	368.000000
	3879968	8330	Agriculture-C-High-All	2	0.000000	0.270000	199.000000
	3879968	8410	Agriculture-D-Low-All	2	0.000000	0.050000	573.000000
	3879968	8420	Agriculture-D-Med-All	2	0.000000	0.150000	368.000000
	3879968	8430	Agriculture-D-High-All	2	0.000000	0.270000	199.000000
	3879968	9000	Water-All-All-All	2	0.000000	0.270000	199.000000
	3879968	10110	Irrigation-A-Low-All	2	0.000000	0.050000	573.000000
	3879968	10120	Irrigation-A-Med-All	2	0.000000	0.150000	368.000000
	3879968	10130	Irrigation-A-High-All	2	0.000000	0.270000	199.000000
	3879968	10210	Irrigation-B-Low-All	2	0.000000	0.050000	573.000000
	3879968	10220	Irrigation-B-Med-All	2	0.000000	0.150000	368.000000
	3879968	10230	Irrigation-B-High-All	2	0.000000	0.270000	199.000000
	3879968	10310	Irrigation-C-Low-All	2	0.000000	0.050000	573.000000
	3879968	10320	Irrigation-C-Med-All	2	0.000000	0.150000	368.000000
	3879968	10330	Irrigation-C-High-All	2	0.000000	0.270000	199.000000
	3879968	10410	Irrigation-D-Low-All	2	0.000000	0.050000	573.000000
	3879968	10420	Irrigation-D-Med-All	2	0.000000	0.150000	368.000000
	3879968	10430	Irrigation-D-High-All	2	0.000000	0.270000	199.000000
	3879970	1000	Developed_Impervious-All-All-All	1	0.059935	0.160000	368.000000
	3879970	2110	Developed_Pervious-A-Low-All	2	0.000000	0.050000	573.000000
	3879970	2120	Developed_Pervious-A-Med-All	2	0.000000	0.150000	368.000000
	3879970	2130	Developed_Pervious-A-High-All	2	0.000000	0.210000	255.000000
	3879970	2210	Developed_Pervious-B-Low-All	2	0.889392	0.040000	580.000000
	3879970	2220	Developed_Pervious-B-Med-All	2	4.669501	0.110000	418.000000
	3879970	2230	Developed_Pervious-B-High-All	2	6.670128	0.260000	206.000000
	3879970	2310	Developed_Pervious-C-Low-All	2	2.874625	0.030000	594.000000
	3879970	2320	Developed_Pervious-C-Med-All	2	11.115618	0.100000	425.000000
	3879970	2330	Developed_Pervious-C-High-All	2	8.208685	0.260000	206.000000
	3879970	2410	Developed_Pervious-D-Low-All	2	0.222357	0.020000	636.000000
	3879970	2420	Developed_Pervious-D-Med-All	2	2.652016	0.090000	439.000000
	3879970	2430	Developed_Pervious-D-High-All	2	0.444714	0.200000	262.000000
	3879970	3110	Barren-A-Low-All	2	0.000000	0.050000	573.000000
	3879970	3120	Barren-A-Med-All	2	0.000000	0.150000	368.000000
	3879970	3130	Barren-A-High-All	2	0.000000	0.210000	255.000000
	3879970	3210	Barren-B-Low-All	2	0.000000	0.050000	573.000000
	3879970	3220	Barren-B-Med-All	2	0.000000	0.150000	368.000000
	3879970	3230	Barren-B-High-All	2	0.000000	0.210000	255.000000
	3879970	3310	Barren-C-Low-All	2	0.000000	0.050000	573.000000
	3879970	3320	Barren-C-Med-All	2	0.000000	0.150000	368.000000
	3879970	3330	Barren-C-High-All	2	0.000000	0.210000	255.000000
	3879970	3410	Barren-D-Low-All	2	0.000000	0.050000	573.000000
	3879970	3420	Barren-D-Med-All	2	0.000000	0.150000	368.000000
	3879970	3430	Barren-D-High-All	2	0.000000	0.210000	255.000000
	3879970	4110	Forest-A-Low-All	2	0.000000	0.050000	573.000000
	3879970	4120	Forest-A-Med-All	2	0.000000	0.150000	368.000000
	3879970	4130	Forest-A-High-All	2	0.000000	0.210000	255.000000
	3879970	4210	Forest-B-Low-All	2	1.334364	0.030000	594.000000
	3879970	4220	Forest-B-Med-All	2	16.679547	0.110000	411.000000
	3879970	4230	Forest-B-High-All	2	49.816246	0.260000	206.000000
	3879970	4310	Forest-C-Low-All	2	2.668727	0.030000	601.000000
	3879970	4320	Forest-C-Med-All	2	31.802335	0.110000	404.000000
	3879970	4330	Forest-C-High-All	2	116.089644	0.280000	192.000000
	3879970	4410	Forest-D-Low-All	2	0.000000	0.050000	573.000000
	3879970	4420	Forest-D-Med-All	2	0.889576	0.120000	389.000000
	3879970	4430	Forest-D-High-All	2	3.780697	0.280000	192.000000
	3879970	5110	Scrub-A-Low-All	2	0.000000	0.050000	573.000000
	3879970	5120	Scrub-A-Med-All	2	0.000000	0.150000	368.000000
	3879970	5130	Scrub-A-High-All	2	0.000000	0.210000	255.000000
	3879970	5210	Scrub-B-Low-All	2	0.222394	0.050000	573.000000
	3879970	5220	Scrub-B-Med-All	2	4.447879	0.120000	382.000000
	3879970	5230	Scrub-B-High-All	2	10.230122	0.230000	227.000000
	3879970	5310	Scrub-C-Low-All	2	1.334364	0.030000	615.000000
	3879970	5320	Scrub-C-Med-All	2	15.789971	0.110000	396.000000
	3879970	5330	Scrub-C-High-All	2	21.794607	0.230000	234.000000
	3879970	5410	Scrub-D-Low-All	2	0.000000	0.050000	573.000000
	3879970	5420	Scrub-D-Med-All	2	1.111970	0.120000	389.000000
	3879970	5430	Scrub-D-High-All	2	10.452516	0.260000	206.000000
	3879970	6110	Grassland-A-Low-All	2	0.000000	0.050000	573.000000
	3879970	6120	Grassland-A-Med-All	2	0.000000	0.150000	368.000000
	3879970	6130	Grassland-A-High-All	2	0.000000	0.210000	255.000000
	3879970	6210	Grassland-B-Low-All	2	0.000000	0.050000	573.000000
	3879970	6220	Grassland-B-Med-All	2	0.000000	0.150000	368.000000
	3879970	6230	Grassland-B-High-All	2	2.001546	0.260000	206.000000
	3879970	6310	Grassland-C-Low-All	2	5.115061	0.030000	608.000000
	3879970	6320	Grassland-C-Med-All	2	17.346728	0.110000	404.000000
	3879970	6330	Grassland-C-High-All	2	19.570668	0.210000	255.000000
	3879970	6410	Grassland-D-Low-All	2	0.000000	0.050000	573.000000
	3879970	6420	Grassland-D-Med-All	2	0.667182	0.130000	368.000000
	3879970	6430	Grassland-D-High-All	2	6.894213	0.310000	178.000000
	3879970	7110	Pasture-A-Low-All	2	0.000000	0.050000	573.000000
	3879970	7120	Pasture-A-Med-All	2	0.000000	0.150000	368.000000
	3879970	7130	Pasture-A-High-All	2	0.000000	0.210000	255.000000
	3879970	7210	Pasture-B-Low-All	2	0.000000	0.050000	573.000000
	3879970	7220	Pasture-B-Med-All	2	0.000000	0.150000	368.000000
	3879970	7230	Pasture-B-High-All	2	0.667182	0.270000	199.000000
	3879970	7310	Pasture-C-Low-All	2	1.779152	0.030000	594.000000
	3879970	7320	Pasture-C-Med-All	2	12.454061	0.110000	404.000000
	3879970	7330	Pasture-C-High-All	2	16.457153	0.220000	241.000000
	3879970	7410	Pasture-D-Low-All	2	0.000000	0.050000	573.000000
	3879970	7420	Pasture-D-Med-All	2	0.222394	0.140000	368.000000
	3879970	7430	Pasture-D-High-All	2	3.335909	0.310000	178.000000
	3879970	8110	Agriculture-A-Low-All	2	0.000000	0.050000	573.000000
	3879970	8120	Agriculture-A-Med-All	2	0.000000	0.150000	368.000000
	3879970	8130	Agriculture-A-High-All	2	0.000000	0.210000	255.000000
	3879970	8210	Agriculture-B-Low-All	2	0.000000	0.050000	573.000000
	3879970	8220	Agriculture-B-Med-All	2	0.000000	0.150000	368.000000
	3879970	8230	Agriculture-B-High-All	2	0.000000	0.210000	255.000000
	3879970	8310	Agriculture-C-Low-All	2	1.556758	0.040000	587.000000
	3879970	8320	Agriculture-C-Med-All	2	0.889576	0.060000	516.000000
	3879970	8330	Agriculture-C-High-All	2	0.667182	0.220000	241.000000
	3879970	8410	Agriculture-D-Low-All	2	0.000000	0.050000	573.000000
	3879970	8420	Agriculture-D-Med-All	2	0.000000	0.150000	368.000000
	3879970	8430	Agriculture-D-High-All	2	0.444788	0.290000	185.000000
	3879970	9000	Water-All-All-All	2	0.000000	0.210000	255.000000
	3879970	10110	Irrigation-A-Low-All	2	0.000000	0.050000	573.000000
	3879970	10120	Irrigation-A-Med-All	2	0.000000	0.150000	368.000000
	3879970	10130	Irrigation-A-High-All	2	0.000000	0.210000	255.000000
	3879970	10210	Irrigation-B-Low-All	2	0.000000	0.050000	573.000000
	3879970	10220	Irrigation-B-Med-All	2	0.000000	0.150000	368.000000
	3879970	10230	Irrigation-B-High-All	2	0.000000	0.210000	255.000000
	3879970	10310	Irrigation-C-Low-All	2	0.000000	0.050000	573.000000
	3879970	10320	Irrigation-C-Med-All	2	0.000000	0.150000	368.000000
	3879970	10330	Irrigation-C-High-All	2	0.000000	0.210000	255.000000
	3879970	10410	Irrigation-D-Low-All	2	0.000000	0.050000	573.000000
	3879970	10420	Irrigation-D-Med-All	2	0.000000	0.150000	368.000000
	3879970	10430	Irrigation-D-High-All	2	0.000000	0.210000	255.000000
	3879972	1000	Developed_Impervious-All-All-All	1	0.000044	0.080000	467.000000
	3879972	2110	Developed_Pervious-A-Low-All	2	0.000000	0.050000	573.000000
	3879972	2120	Developed_Pervious-A-Med-All	2	0.000000	0.150000	368.000000
	3879972	2130	Developed_Pervious-A-High-All	2	0.000000	0.180000	298.000000
	3879972	2210	Developed_Pervious-B-Low-All	2	0.000000	0.050000	573.000000
	3879972	2220	Developed_Pervious-B-Med-All	2	0.000000	0.150000	368.000000
	3879972	2230	Developed_Pervious-B-High-All	2	0.000000	0.180000	298.000000
	3879972	2310	Developed_Pervious-C-Low-All	2	0.000000	0.050000	573.000000
	3879972	2320	Developed_Pervious-C-Med-All	2	0.444743	0.080000	467.000000
	3879972	2330	Developed_Pervious-C-High-All	2	0.000000	0.180000	298.000000
	3879972	2410	Developed_Pervious-D-Low-All	2	0.000000	0.050000	573.000000
	3879972	2420	Developed_Pervious-D-Med-All	2	0.000000	0.150000	368.000000
	3879972	2430	Developed_Pervious-D-High-All	2	0.000000	0.180000	298.000000
	3879972	3110	Barren-A-Low-All	2	0.000000	0.050000	573.000000
	3879972	3120	Barren-A-Med-All	2	0.000000	0.150000	368.000000
	3879972	3130	Barren-A-High-All	2	0.000000	0.180000	298.000000
	3879972	3210	Barren-B-Low-All	2	0.000000	0.050000	573.000000
	3879972	3220	Barren-B-Med-All	2	0.000000	0.150000	368.000000
	3879972	3230	Barren-B-High-All	2	0.000000	0.180000	298.000000
	3879972	3310	Barren-C-Low-All	2	0.000000	0.050000	573.000000
	3879972	3320	Barren-C-Med-All	2	0.000000	0.150000	368.000000
	3879972	3330	Barren-C-High-All	2	0.000000	0.180000	298.000000
	3879972	3410	Barren-D-Low-All	2	0.000000	0.050000	573.000000
	3879972	3420	Barren-D-Med-All	2	0.000000	0.150000	368.000000
	3879972	3430	Barren-D-High-All	2	0.000000	0.180000	298.000000
	3879972	4110	Forest-A-Low-All	2	0.000000	0.050000	573.000000
	3879972	4120	Forest-A-Med-All	2	0.000000	0.150000	368.000000
	3879972	4130	Forest-A-High-All	2	0.000000	0.180000	298.000000
	3879972	4210	Forest-B-Low-All	2	0.000000	0.050000	573.000000
	3879972	4220	Forest-B-Med-All	2	0.222394	0.140000	368.000000
	3879972	4230	Forest-B-High-All	2	12.231667	0.320000	164.000000
	3879972	4310	Forest-C-Low-All	2	0.889576	0.030000	601.000000
	3879972	4320	Forest-C-Med-All	2	6.227031	0.100000	418.000000
	3879972	4330	Forest-C-High-All	2	6.227031	0.250000	220.000000
	3879972	4410	Forest-D-Low-All	2	0.000000	0.050000	573.000000
	3879972	4420	Forest-D-Med-All	2	0.000000	0.150000	368.000000
	3879972	4430	Forest-D-High-All	2	0.000000	0.180000	298.000000
	3879972	5110	Scrub-A-Low-All	2	0.000000	0.050000	573.000000
	3879972	5120	Scrub-A-Med-All	2	0.000000	0.150000	368.000000
	3879972	5130	Scrub-A-High-All	2	0.000000	0.180000	298.000000
	3879972	5210	Scrub-B-Low-All	2	0.000000	0.050000	573.000000
	3879972	5220	Scrub-B-Med-All	2	3.113515	0.120000	382.000000
	3879972	5230	Scrub-B-High-All	2	10.007728	0.240000	220.000000
	3879972	5310	Scrub-C-Low-All	2	2.446333	0.030000	594.000000
	3879972	5320	Scrub-C-Med-All	2	11.119698	0.110000	411.000000
	3879972	5330	Scrub-C-High-All	2	12.231667	0.320000	171.000000
	3879972	5410	Scrub-D-Low-All	2	0.000000	0.050000	573.000000
	3879972	5420	Scrub-D-Med-All	2	0.000000	0.150000	368.000000
	3879972	5430	Scrub-D-High-All	2	0.000000	0.180000	298.000000
	3879972	6110	Grassland-A-Low-All	2	0.000000	0.050000	573.000000
	3879972	6120	Grassland-A-Med-All	2	0.000000	0.150000	368.000000
	3879972	6130	Grassland-A-High-All	2	0.000000	0.180000	298.000000
	3879972	6210	Grassland-B-Low-All	2	0.000000	0.050000	573.000000
	3879972	6220	Grassland-B-Med-All	2	0.000000	0.150000	368.000000
	3879972	6230	Grassland-B-High-All	2	2.891121	0.280000	192.000000
	3879972	6310	Grassland-C-Low-All	2	8.673364	0.030000	601.000000
	3879972	6320	Grassland-C-Med-All	2	16.457153	0.090000	446.000000
	3879972	6330	Grassland-C-High-All	2	13.343637	0.250000	213.000000
	3879972	6410	Grassland-D-Low-All	2	0.000000	0.050000	573.000000
	3879972	6420	Grassland-D-Med-All	2	0.000000	0.150000	368.000000
	3879972	6430	Grassland-D-High-All	2	0.000000	0.180000	298.000000
	3879972	7110	Pasture-A-Low-All	2	0.000000	0.050000	573.000000
	3879972	7120	Pasture-A-Med-All	2	0.000000	0.150000	368.000000
	3879972	7130	Pasture-A-High-All	2	0.000000	0.180000	298.000000
	3879972	7210	Pasture-B-Low-All	2	0.000000	0.050000	573.000000
	3879972	7220	Pasture-B-Med-All	2	0.000000	0.150000	368.000000
	3879972	7230	Pasture-B-High-All	2	0.667182	0.260000	206.000000
	3879972	7310	Pasture-C-Low-All	2	2.001546	0.030000	601.000000
	3879972	7320	Pasture-C-Med-All	2	5.782243	0.110000	404.000000
	3879972	7330	Pasture-C-High-All	2	9.785334	0.220000	241.000000
	3879972	7410	Pasture-D-Low-All	2	0.000000	0.050000	573.000000
	3879972	7420	Pasture-D-Med-All	2	0.000000	0.150000	368.000000
	3879972	7430	Pasture-D-High-All	2	0.000000	0.180000	298.000000
	3879972	8110	Agriculture-A-Low-All	2	0.000000	0.050000	573.000000
	3879972	8120	Agriculture-A-Med-All	2	0.000000	0.150000	368.000000
	3879972	8130	Agriculture-A-High-All	2	0.000000	0.180000	298.000000
	3879972	8210	Agriculture-B-Low-All	2	0.000000	0.050000	573.000000
	3879972	8220	Agriculture-B-Med-All	2	0.000000	0.150000	368.000000
	3879972	8230	Agriculture-B-High-All	2	0.000000	0.180000	298.000000
	3879972	8310	Agriculture-C-Low-All	2	4.003091	0.030000	608.000000
	3879972	8320	Agriculture-C-Med-All	2	2.668727	0.080000	467.000000
	3879972	8330	Agriculture-C-High-All	2	0.889576	0.270000	199.000000
	3879972	8410	Agriculture-D-Low-All	2	0.000000	0.050000	573.000000
	3879972	8420	Agriculture-D-Med-All	2	0.000000	0.150000	368.000000
	3879972	8430	Agriculture-D-High-All	2	0.000000	0.180000	298.000000
	3879972	9000	Water-All-All-All	2	0.000000	0.180000	298.000000
	3879972	10110	Irrigation-A-Low-All	2	0.000000	0.050000	573.000000
	3879972	10120	Irrigation-A-Med-All	2	0.000000	0.150000	368.000000
	3879972	10130	Irrigation-A-High-All	2	0.000000	0.180000	298.000000
	3879972	10210	Irrigation-B-Low-All	2	0.000000	0.050000	573.000000
	3879972	10220	Irrigation-B-Med-All	2	0.000000	0.150000	368.000000
	3879972	10230	Irrigation-B-High-All	2	0.000000	0.180000	298.000000
	3879972	10310	Irrigation-C-Low-All	2	0.000000	0.050000	573.000000
	3879972	10320	Irrigation-C-Med-All	2	0.000000	0.150000	368.000000
	3879972	10330	Irrigation-C-High-All	2	0.000000	0.180000	298.000000
	3879972	10410	Irrigation-D-Low-All	2	0.000000	0.050000	573.000000
	3879972	10420	Irrigation-D-Med-All	2	0.000000	0.150000	368.000000
	3879972	10430	Irrigation-D-High-All	2	0.000000	0.180000	298.000000
	3879974	1000	Developed_Impervious-All-All-All	1	0.035794	0.110000	411.000000
	3879974	2110	Developed_Pervious-A-Low-All	2	0.000000	0.050000	573.000000
	3879974	2120	Developed_Pervious-A-Med-All	2	0.000000	0.150000	368.000000
	3879974	2130	Developed_Pervious-A-High-All	2	0.000000	0.260000	206.000000
	3879974	2210	Developed_Pervious-B-Low-All	2	0.000000	0.050000	573.000000
	3879974	2220	Developed_Pervious-B-Med-All	2	1.777983	0.100000	418.000000
	3879974	2230	Developed_Pervious-B-High-All	2	1.333828	0.200000	262.000000
	3879974	2310	Developed_Pervious-C-Low-All	2	5.753899	0.030000	594.000000
	3879974	2320	Developed_Pervious-C-Med-All	2	8.446929	0.090000	446.000000
	3879974	2330	Developed_Pervious-C-High-All	2	4.001387	0.220000	248.000000
	3879974	2410	Developed_Pervious-D-Low-All	2	0.000000	0.050000	573.000000
	3879974	2420	Developed_Pervious-D-Med-All	2	0.000000	0.150000	368.000000
	3879974	2430	Developed_Pervious-D-High-All	2	0.000000	0.260000	206.000000
	3879974	3110	Barren-A-Low-All	2	0.000000	0.050000	573.000000
	3879974	3120	Barren-A-Med-All	2	0.000000	0.150000	368.000000
	3879974	3130	Barren-A-High-All	2	0.000000	0.260000	206.000000
	3879974	3210	Barren-B-Low-All	2	0.000000	0.050000	573.000000
	3879974	3220	Barren-B-Med-All	2	0.000000	0.150000	368.000000
	3879974	3230	Barren-B-High-All	2	0.000000	0.260000	206.000000
	3879974	3310	Barren-C-Low-All	2	0.000000	0.050000	573.000000
	3879974	3320	Barren-C-Med-All	2	0.000000	0.150000	368.000000
	3879974	3330	Barren-C-High-All	2	0.000000	0.260000	206.000000
	3879974	3410	Barren-D-Low-All	2	0.000000	0.050000	573.000000
	3879974	3420	Barren-D-Med-All	2	0.000000	0.150000	368.000000
	3879974	3430	Barren-D-High-All	2	0.000000	0.260000	206.000000
	3879974	4110	Forest-A-Low-All	2	0.000000	0.050000	573.000000
	3879974	4120	Forest-A-Med-All	2	0.000000	0.150000	368.000000
	3879974	4130	Forest-A-High-All	2	0.000000	0.260000	206.000000
	3879974	4210	Forest-B-Low-All	2	0.667182	0.030000	601.000000
	3879974	4220	Forest-B-Med-All	2	6.671819	0.120000	396.000000
	3879974	4230	Forest-B-High-All	2	40.698094	0.390000	135.000000
	3879974	4310	Forest-C-Low-All	2	6.227031	0.030000	608.000000
	3879974	4320	Forest-C-Med-All	2	32.469517	0.100000	418.000000
	3879974	4330	Forest-C-High-All	2	202.378498	0.340000	156.000000
	3879974	4410	Forest-D-Low-All	2	0.000000	0.050000	573.000000
	3879974	4420	Forest-D-Med-All	2	0.000000	0.150000	368.000000
	3879974	4430	Forest-D-High-All	2	1.111970	0.270000	199.000000
	3879974	5110	Scrub-A-Low-All	2	0.000000	0.050000	573.000000
	3879974	5120	Scrub-A-Med-All	2	0.000000	0.150000	368.000000
	3879974	5130	Scrub-A-High-All	2	0.000000	0.260000	206.000000
	3879974	5210	Scrub-B-Low-All	2	0.889576	0.020000	629.000000
	3879974	5220	Scrub-B-Med-All	2	1.334364	0.100000	425.000000
	3879974	5230	Scrub-B-High-All	2	0.444788	0.250000	213.000000
	3879974	5310	Scrub-C-Low-All	2	10.230122	0.030000	601.000000
	3879974	5320	Scrub-C-Med-All	2	20.460244	0.100000	425.000000
	3879974	5330	Scrub-C-High-All	2	37.806972	0.250000	213.000000
	3879974	5410	Scrub-D-Low-All	2	0.000000	0.050000	573.000000
	3879974	5420	Scrub-D-Med-All	2	0.000000	0.150000	368.000000
	3879974	5430	Scrub-D-High-All	2	0.667182	0.280000	192.000000
	3879974	6110	Grassland-A-Low-All	2	0.000000	0.050000	573.000000
	3879974	6120	Grassland-A-Med-All	2	0.000000	0.150000	368.000000
	3879974	6130	Grassland-A-High-All	2	0.000000	0.260000	206.000000
	3879974	6210	Grassland-B-Low-All	2	0.000000	0.050000	573.000000
	3879974	6220	Grassland-B-Med-All	2	0.000000	0.150000	368.000000
	3879974	6230	Grassland-B-High-All	2	0.000000	0.260000	206.000000
	3879974	6310	Grassland-C-Low-All	2	0.889576	0.030000	608.000000
	3879974	6320	Grassland-C-Med-All	2	2.668727	0.100000	432.000000
	3879974	6330	Grassland-C-High-All	2	1.111970	0.240000	220.000000
	3879974	6410	Grassland-D-Low-All	2	0.000000	0.050000	573.000000
	3879974	6420	Grassland-D-Med-All	2	0.000000	0.150000	368.000000
	3879974	6430	Grassland-D-High-All	2	0.000000	0.260000	206.000000
	3879974	7110	Pasture-A-Low-All	2	0.000000	0.050000	573.000000
	3879974	7120	Pasture-A-Med-All	2	0.000000	0.150000	368.000000
	3879974	7130	Pasture-A-High-All	2	0.000000	0.260000	206.000000
	3879974	7210	Pasture-B-Low-All	2	0.222394	0.040000	573.000000
	3879974	7220	Pasture-B-Med-All	2	0.000000	0.150000	368.000000
	3879974	7230	Pasture-B-High-All	2	0.000000	0.260000	206.000000
	3879974	7310	Pasture-C-Low-All	2	0.222394	0.020000	636.000000
	3879974	7320	Pasture-C-Med-All	2	0.444788	0.070000	516.000000
	3879974	7330	Pasture-C-High-All	2	0.444788	0.200000	284.000000
	3879974	7410	Pasture-D-Low-All	2	0.000000	0.050000	573.000000
	3879974	7420	Pasture-D-Med-All	2	0.000000	0.150000	368.000000
	3879974	7430	Pasture-D-High-All	2	0.000000	0.260000	206.000000
	3879974	8110	Agriculture-A-Low-All	2	0.000000	0.050000	573.000000
	3879974	8120	Agriculture-A-Med-All	2	0.000000	0.150000	368.000000
	3879974	8130	Agriculture-A-High-All	2	0.000000	0.260000	206.000000
	3879974	8210	Agriculture-B-Low-All	2	3.558303	0.020000	622.000000
	3879974	8220	Agriculture-B-Med-All	2	7.116607	0.090000	439.000000
	3879974	8230	Agriculture-B-High-All	2	0.667182	0.210000	255.000000
	3879974	8310	Agriculture-C-Low-All	2	0.000000	0.050000	573.000000
	3879974	8320	Agriculture-C-Med-All	2	0.222394	0.060000	573.000000
	3879974	8330	Agriculture-C-High-All	2	0.889576	0.210000	255.000000
	3879974	8410	Agriculture-D-Low-All	2	0.000000	0.050000	573.000000
	3879974	8420	Agriculture-D-Med-All	2	0.000000	0.150000	368.000000
	3879974	8430	Agriculture-D-High-All	2	0.000000	0.260000	206.000000
	3879974	9000	Water-All-All-All	2	0.222394	0.040000	573.000000
	3879974	10110	Irrigation-A-Low-All	2	0.000000	0.050000	573.000000
	3879974	10120	Irrigation-A-Med-All	2	0.000000	0.150000	368.000000
	3879974	10130	Irrigation-A-High-All	2	0.000000	0.260000	206.000000
	3879974	10210	Irrigation-B-Low-All	2	0.000000	0.050000	573.000000
	3879974	10220	Irrigation-B-Med-All	2	0.000000	0.150000	368.000000
	3879974	10230	Irrigation-B-High-All	2	0.000000	0.260000	206.000000
	3879974	10310	Irrigation-C-Low-All	2	0.000000	0.050000	573.000000
	3879974	10320	Irrigation-C-Med-All	2	0.000000	0.150000	368.000000
	3879974	10330	Irrigation-C-High-All	2	0.000000	0.260000	206.000000
	3879974	10410	Irrigation-D-Low-All	2	0.000000	0.050000	573.000000
	3879974	10420	Irrigation-D-Med-All	2	0.000000	0.150000	368.000000
	3879974	10430	Irrigation-D-High-All	2	0.000000	0.260000	206.000000
	3879976	1000	Developed_Impervious-All-All-All	1	0.753249	0.190000	284.000000
	3879976	2110	Developed_Pervious-A-Low-All	2	0.000000	0.050000	573.000000
	3879976	2120	Developed_Pervious-A-Med-All	2	0.000000	0.150000	368.000000
	3879976	2130	Developed_Pervious-A-High-All	2	0.000000	0.240000	220.000000
	3879976	2210	Developed_Pervious-B-Low-All	2	0.666756	0.030000	622.000000
	3879976	2220	Developed_Pervious-B-Med-All	2	7.779777	0.110000	404.000000
	3879976	2230	Developed_Pervious-B-High-All	2	23.734158	0.260000	206.000000
	3879976	2310	Developed_Pervious-C-Low-All	2	2.125722	0.030000	608.000000
	3879976	2320	Developed_Pervious-C-Med-All	2	18.123939	0.110000	411.000000
	3879976	2330	Developed_Pervious-C-High-All	2	25.543859	0.230000	234.000000
	3879976	2410	Developed_Pervious-D-Low-All	2	0.000000	0.050000	573.000000
	3879976	2420	Developed_Pervious-D-Med-All	2	0.000000	0.150000	368.000000
	3879976	2430	Developed_Pervious-D-High-All	2	0.000000	0.240000	220.000000
	3879976	3110	Barren-A-Low-All	2	0.000000	0.050000	573.000000
	3879976	3120	Barren-A-Med-All	2	0.000000	0.150000	368.000000
	3879976	3130	Barren-A-High-All	2	0.000000	0.240000	220.000000
	3879976	3210	Barren-B-Low-All	2	0.000000	0.050000	573.000000
	3879976	3220	Barren-B-Med-All	2	0.000000	0.150000	368.000000
	3879976	3230	Barren-B-High-All	2	0.000000	0.240000	220.000000
	3879976	3310	Barren-C-Low-All	2	0.000000	0.050000	573.000000
	3879976	3320	Barren-C-Med-All	2	0.000000	0.150000	368.000000
	3879976	3330	Barren-C-High-All	2	0.000000	0.240000	220.000000
	3879976	3410	Barren-D-Low-All	2	0.000000	0.050000	573.000000
	3879976	3420	Barren-D-Med-All	2	0.000000	0.150000	368.000000
	3879976	3430	Barren-D-High-All	2	0.000000	0.240000	220.000000
	3879976	4110	Forest-A-Low-All	2	0.000000	0.050000	573.000000
	3879976	4120	Forest-A-Med-All	2	0.000000	0.150000	368.000000
	3879976	4130	Forest-A-High-All	2	0.000000	0.240000	220.000000
	3879976	4210	Forest-B-Low-All	2	2.001546	0.030000	608.000000
	3879976	4220	Forest-B-Med-All	2	45.368367	0.110000	404.000000
	3879976	4230	Forest-B-High-All	2	290.668898	0.300000	178.000000
	3879976	4310	Forest-C-Low-All	2	4.225485	0.030000	594.000000
	3879976	4320	Forest-C-Med-All	2	66.051004	0.110000	404.000000
	3879976	4330	Forest-C-High-All	2	239.295894	0.280000	192.000000
	3879976	4410	Forest-D-Low-All	2	0.000000	0.050000	573.000000
	3879976	4420	Forest-D-Med-All	2	0.000000	0.150000	368.000000
	3879976	4430	Forest-D-High-All	2	0.000000	0.240000	220.000000
	3879976	5110	Scrub-A-Low-All	2	0.000000	0.050000	573.000000
	3879976	5120	Scrub-A-Med-All	2	0.000000	0.150000	368.000000
	3879976	5130	Scrub-A-High-All	2	0.000000	0.240000	220.000000
	3879976	5210	Scrub-B-Low-All	2	0.000000	0.050000	573.000000
	3879976	5220	Scrub-B-Med-All	2	1.111970	0.100000	425.000000
	3879976	5230	Scrub-B-High-All	2	1.111970	0.230000	234.000000
	3879976	5310	Scrub-C-Low-All	2	1.334364	0.040000	587.000000
	3879976	5320	Scrub-C-Med-All	2	22.684183	0.110000	411.000000
	3879976	5330	Scrub-C-High-All	2	34.248669	0.220000	248.000000
	3879976	5410	Scrub-D-Low-All	2	0.000000	0.050000	573.000000
	3879976	5420	Scrub-D-Med-All	2	0.000000	0.150000	368.000000
	3879976	5430	Scrub-D-High-All	2	0.000000	0.240000	220.000000
	3879976	6110	Grassland-A-Low-All	2	0.000000	0.050000	573.000000
	3879976	6120	Grassland-A-Med-All	2	0.000000	0.150000	368.000000
	3879976	6130	Grassland-A-High-All	2	0.000000	0.240000	220.000000
	3879976	6210	Grassland-B-Low-All	2	0.000000	0.050000	573.000000
	3879976	6220	Grassland-B-Med-All	2	0.000000	0.150000	368.000000
	3879976	6230	Grassland-B-High-All	2	0.222394	0.150000	368.000000
	3879976	6310	Grassland-C-Low-All	2	0.444788	0.040000	580.000000
	3879976	6320	Grassland-C-Med-All	2	3.113515	0.110000	411.000000
	3879976	6330	Grassland-C-High-All	2	6.449425	0.210000	255.000000
	3879976	6410	Grassland-D-Low-All	2	0.000000	0.050000	573.000000
	3879976	6420	Grassland-D-Med-All	2	0.000000	0.150000	368.000000
	3879976	6430	Grassland-D-High-All	2	0.000000	0.240000	220.000000
	3879976	7110	Pasture-A-Low-All	2	0.000000	0.050000	573.000000
	3879976	7120	Pasture-A-Med-All	2	0.000000	0.150000	368.000000
	3879976	7130	Pasture-A-High-All	2	0.000000	0.240000	220.000000
	3879976	7210	Pasture-B-Low-All	2	0.000000	0.050000	573.000000
	3879976	7220	Pasture-B-Med-All	2	0.000000	0.150000	368.000000
	3879976	7230	Pasture-B-High-All	2	0.444788	0.240000	227.000000
	3879976	7310	Pasture-C-Low-All	2	0.000000	0.050000	573.000000
	3879976	7320	Pasture-C-Med-All	2	2.668727	0.120000	396.000000
	3879976	7330	Pasture-C-High-All	2	4.225485	0.240000	227.000000
	3879976	7410	Pasture-D-Low-All	2	0.000000	0.050000	573.000000
	3879976	7420	Pasture-D-Med-All	2	0.000000	0.150000	368.000000
	3879976	7430	Pasture-D-High-All	2	0.000000	0.240000	220.000000
	3879976	8110	Agriculture-A-Low-All	2	0.000000	0.050000	573.000000
	3879976	8120	Agriculture-A-Med-All	2	0.000000	0.150000	368.000000
	3879976	8130	Agriculture-A-High-All	2	0.000000	0.240000	220.000000
	3879976	8210	Agriculture-B-Low-All	2	0.000000	0.050000	573.000000
	3879976	8220	Agriculture-B-Med-All	2	0.222394	0.130000	382.000000
	3879976	8230	Agriculture-B-High-All	2	0.222394	0.150000	368.000000
	3879976	8310	Agriculture-C-Low-All	2	0.000000	0.050000	573.000000
	3879976	8320	Agriculture-C-Med-All	2	4.670273	0.120000	382.000000
	3879976	8330	Agriculture-C-High-All	2	11.786880	0.220000	248.000000
	3879976	8410	Agriculture-D-Low-All	2	0.000000	0.050000	573.000000
	3879976	8420	Agriculture-D-Med-All	2	0.000000	0.150000	368.000000
	3879976	8430	Agriculture-D-High-All	2	0.000000	0.240000	220.000000
	3879976	9000	Water-All-All-All	2	0.000000	0.240000	220.000000
	3879976	10110	Irrigation-A-Low-All	2	0.000000	0.050000	573.000000
	3879976	10120	Irrigation-A-Med-All	2	0.000000	0.150000	368.000000
	3879976	10130	Irrigation-A-High-All	2	0.000000	0.240000	220.000000
	3879976	10210	Irrigation-B-Low-All	2	0.000000	0.050000	573.000000
	3879976	10220	Irrigation-B-Med-All	2	0.000000	0.150000	368.000000
	3879976	10230	Irrigation-B-High-All	2	0.000000	0.240000	220.000000
	3879976	10310	Irrigation-C-Low-All	2	0.000000	0.050000	573.000000
	3879976	10320	Irrigation-C-Med-All	2	0.000000	0.150000	368.000000
	3879976	10330	Irrigation-C-High-All	2	0.000000	0.240000	220.000000
	3879976	10410	Irrigation-D-Low-All	2	0.000000	0.050000	573.000000
	3879976	10420	Irrigation-D-Med-All	2	0.000000	0.150000	368.000000
	3879976	10430	Irrigation-D-High-All	2	0.000000	0.240000	220.000000
	3879978	1000	Developed_Impervious-All-All-All	1	1.187127	0.150000	368.000000
	3879978	2110	Developed_Pervious-A-Low-All	2	0.000000	0.050000	573.000000
	3879978	2120	Developed_Pervious-A-Med-All	2	0.000000	0.150000	368.000000
	3879978	2130	Developed_Pervious-A-High-All	2	0.000000	0.260000	206.000000
	3879978	2210	Developed_Pervious-B-Low-All	2	1.333128	0.030000	608.000000
	3879978	2220	Developed_Pervious-B-Med-All	2	16.880930	0.100000	418.000000
	3879978	2230	Developed_Pervious-B-High-All	2	3.507334	0.270000	199.000000
	3879978	2310	Developed_Pervious-C-Low-All	2	6.393215	0.030000	594.000000
	3879978	2320	Developed_Pervious-C-Med-All	2	27.950994	0.100000	425.000000
	3879978	2330	Developed_Pervious-C-High-All	2	21.062167	0.250000	220.000000
	3879978	2410	Developed_Pervious-D-Low-All	2	0.000000	0.050000	573.000000
	3879978	2420	Developed_Pervious-D-Med-All	2	1.333437	0.080000	467.000000
	3879978	2430	Developed_Pervious-D-High-All	2	4.861371	0.240000	220.000000
	3879978	3110	Barren-A-Low-All	2	0.000000	0.050000	573.000000
	3879978	3120	Barren-A-Med-All	2	0.000000	0.150000	368.000000
	3879978	3130	Barren-A-High-All	2	0.000000	0.260000	206.000000
	3879978	3210	Barren-B-Low-All	2	0.000000	0.050000	573.000000
	3879978	3220	Barren-B-Med-All	2	0.000000	0.150000	368.000000
	3879978	3230	Barren-B-High-All	2	0.000000	0.260000	206.000000
	3879978	3310	Barren-C-Low-All	2	0.000000	0.050000	573.000000
	3879978	3320	Barren-C-Med-All	2	0.000000	0.150000	368.000000
	3879978	3330	Barren-C-High-All	2	0.000000	0.260000	206.000000
	3879978	3410	Barren-D-Low-All	2	0.000000	0.050000	573.000000
	3879978	3420	Barren-D-Med-All	2	0.000000	0.150000	368.000000
	3879978	3430	Barren-D-High-All	2	0.000000	0.260000	206.000000
	3879978	4110	Forest-A-Low-All	2	0.000000	0.050000	573.000000
	3879978	4120	Forest-A-Med-All	2	0.000000	0.150000	368.000000
	3879978	4130	Forest-A-High-All	2	0.000000	0.260000	206.000000
	3879978	4210	Forest-B-Low-All	2	3.780697	0.040000	587.000000
	3879978	4220	Forest-B-Med-All	2	38.918942	0.100000	418.000000
	3879978	4230	Forest-B-High-All	2	132.769190	0.300000	178.000000
	3879978	4310	Forest-C-Low-All	2	13.121243	0.030000	601.000000
	3879978	4320	Forest-C-Med-All	2	111.641765	0.110000	411.000000
	3879978	4330	Forest-C-High-All	2	681.415074	0.340000	156.000000
	3879978	4410	Forest-D-Low-All	2	0.444788	0.040000	580.000000
	3879978	4420	Forest-D-Med-All	2	9.785334	0.120000	382.000000
	3879978	4430	Forest-D-High-All	2	111.196977	0.280000	192.000000
	3879978	5110	Scrub-A-Low-All	2	0.000000	0.050000	573.000000
	3879978	5120	Scrub-A-Med-All	2	0.000000	0.150000	368.000000
	3879978	5130	Scrub-A-High-All	2	0.000000	0.260000	206.000000
	3879978	5210	Scrub-B-Low-All	2	3.113515	0.040000	587.000000
	3879978	5220	Scrub-B-Med-All	2	36.695002	0.110000	404.000000
	3879978	5230	Scrub-B-High-All	2	32.691911	0.240000	227.000000
	3879978	5310	Scrub-C-Low-All	2	7.783788	0.030000	594.000000
	3879978	5320	Scrub-C-Med-All	2	51.595397	0.100000	418.000000
	3879978	5330	Scrub-C-High-All	2	55.820882	0.250000	213.000000
	3879978	5410	Scrub-D-Low-All	2	0.667182	0.040000	587.000000
	3879978	5420	Scrub-D-Med-All	2	13.788425	0.110000	404.000000
	3879978	5430	Scrub-D-High-All	2	95.629400	0.300000	178.000000
	3879978	6110	Grassland-A-Low-All	2	0.000000	0.050000	573.000000
	3879978	6120	Grassland-A-Med-All	2	0.000000	0.150000	368.000000
	3879978	6130	Grassland-A-High-All	2	0.000000	0.260000	206.000000
	3879978	6210	Grassland-B-Low-All	2	0.000000	0.050000	573.000000
	3879978	6220	Grassland-B-Med-All	2	4.225485	0.110000	411.000000
	3879978	6230	Grassland-B-High-All	2	14.010819	0.230000	234.000000
	3879978	6310	Grassland-C-Low-All	2	0.889576	0.040000	587.000000
	3879978	6320	Grassland-C-Med-All	2	11.342092	0.110000	411.000000
	3879978	6330	Grassland-C-High-All	2	19.570668	0.240000	227.000000
	3879978	6410	Grassland-D-Low-All	2	0.000000	0.050000	573.000000
	3879978	6420	Grassland-D-Med-All	2	3.558303	0.110000	404.000000
	3879978	6430	Grassland-D-High-All	2	28.911214	0.300000	178.000000
	3879978	7110	Pasture-A-Low-All	2	0.000000	0.050000	573.000000
	3879978	7120	Pasture-A-Med-All	2	0.000000	0.150000	368.000000
	3879978	7130	Pasture-A-High-All	2	0.000000	0.260000	206.000000
	3879978	7210	Pasture-B-Low-All	2	0.444788	0.050000	573.000000
	3879978	7220	Pasture-B-Med-All	2	3.780697	0.100000	418.000000
	3879978	7230	Pasture-B-High-All	2	1.334364	0.230000	234.000000
	3879978	7310	Pasture-C-Low-All	2	0.889576	0.040000	573.000000
	3879978	7320	Pasture-C-Med-All	2	4.892667	0.100000	432.000000
	3879978	7330	Pasture-C-High-All	2	2.891121	0.320000	164.000000
	3879978	7410	Pasture-D-Low-All	2	0.000000	0.050000	573.000000
	3879978	7420	Pasture-D-Med-All	2	0.444788	0.130000	382.000000
	3879978	7430	Pasture-D-High-All	2	4.670273	0.310000	171.000000
	3879978	8110	Agriculture-A-Low-All	2	0.000000	0.050000	573.000000
	3879978	8120	Agriculture-A-Med-All	2	0.000000	0.150000	368.000000
	3879978	8130	Agriculture-A-High-All	2	0.000000	0.260000	206.000000
	3879978	8210	Agriculture-B-Low-All	2	2.446333	0.030000	601.000000
	3879978	8220	Agriculture-B-Med-All	2	13.121243	0.120000	389.000000
	3879978	8230	Agriculture-B-High-All	2	2.891121	0.170000	368.000000
	3879978	8310	Agriculture-C-Low-All	2	4.670273	0.040000	587.000000
	3879978	8320	Agriculture-C-Med-All	2	21.349820	0.100000	418.000000
	3879978	8330	Agriculture-C-High-All	2	5.782243	0.200000	269.000000
	3879978	8410	Agriculture-D-Low-All	2	0.000000	0.050000	573.000000
	3879978	8420	Agriculture-D-Med-All	2	2.223940	0.090000	446.000000
	3879978	8430	Agriculture-D-High-All	2	9.118152	0.240000	227.000000
	3879978	9000	Water-All-All-All	2	0.444788	0.050000	573.000000
	3879978	10110	Irrigation-A-Low-All	2	0.000000	0.050000	573.000000
	3879978	10120	Irrigation-A-Med-All	2	0.000000	0.150000	368.000000
	3879978	10130	Irrigation-A-High-All	2	0.000000	0.260000	206.000000
	3879978	10210	Irrigation-B-Low-All	2	0.000000	0.050000	573.000000
	3879978	10220	Irrigation-B-Med-All	2	0.000000	0.150000	368.000000
	3879978	10230	Irrigation-B-High-All	2	0.000000	0.260000	206.000000
	3879978	10310	Irrigation-C-Low-All	2	0.000000	0.050000	573.000000
	3879978	10320	Irrigation-C-Med-All	2	0.000000	0.150000	368.000000
	3879978	10330	Irrigation-C-High-All	2	0.000000	0.260000	206.000000
	3879978	10410	Irrigation-D-Low-All	2	0.000000	0.050000	573.000000
	3879978	10420	Irrigation-D-Med-All	2	0.000000	0.150000	368.000000
	3879978	10430	Irrigation-D-High-All	2	0.000000	0.260000	206.000000
	3879980	1000	Developed_Impervious-All-All-All	1	0.218804	0.140000	368.000000
	3879980	2110	Developed_Pervious-A-Low-All	2	0.561762	0.040000	580.000000
	3879980	2120	Developed_Pervious-A-Med-All	2	0.221829	0.130000	382.000000
	3879980	2130	Developed_Pervious-A-High-All	2	0.000000	0.210000	255.000000
	3879980	2210	Developed_Pervious-B-Low-All	2	0.000000	0.050000	573.000000
	3879980	2220	Developed_Pervious-B-Med-All	2	0.112966	0.100000	432.000000
	3879980	2230	Developed_Pervious-B-High-All	2	0.221377	0.210000	255.000000
	3879980	2310	Developed_Pervious-C-Low-All	2	0.222281	0.030000	615.000000
	3879980	2320	Developed_Pervious-C-Med-All	2	0.443544	0.140000	368.000000
	3879980	2330	Developed_Pervious-C-High-All	2	1.110952	0.240000	227.000000
	3879980	2410	Developed_Pervious-D-Low-All	2	0.000000	0.050000	573.000000
	3879980	2420	Developed_Pervious-D-Med-All	2	0.000000	0.150000	368.000000
	3879980	2430	Developed_Pervious-D-High-All	2	0.000000	0.210000	255.000000
	3879980	3110	Barren-A-Low-All	2	0.000000	0.050000	573.000000
	3879980	3120	Barren-A-Med-All	2	0.000000	0.150000	368.000000
	3879980	3130	Barren-A-High-All	2	0.000000	0.210000	255.000000
	3879980	3210	Barren-B-Low-All	2	0.000000	0.050000	573.000000
	3879980	3220	Barren-B-Med-All	2	0.000000	0.150000	368.000000
	3879980	3230	Barren-B-High-All	2	0.000000	0.210000	255.000000
	3879980	3310	Barren-C-Low-All	2	0.000000	0.050000	573.000000
	3879980	3320	Barren-C-Med-All	2	0.000000	0.150000	368.000000
	3879980	3330	Barren-C-High-All	2	0.000000	0.210000	255.000000
	3879980	3410	Barren-D-Low-All	2	0.000000	0.050000	573.000000
	3879980	3420	Barren-D-Med-All	2	0.000000	0.150000	368.000000
	3879980	3430	Barren-D-High-All	2	0.000000	0.210000	255.000000
	3879980	4110	Forest-A-Low-All	2	0.000000	0.050000	573.000000
	3879980	4120	Forest-A-Med-All	2	0.222394	0.070000	488.000000
	3879980	4130	Forest-A-High-All	2	0.000000	0.210000	255.000000
	3879980	4210	Forest-B-Low-All	2	0.889576	0.030000	608.000000
	3879980	4220	Forest-B-Med-All	2	2.668727	0.090000	446.000000
	3879980	4230	Forest-B-High-All	2	1.111970	0.240000	227.000000
	3879980	4310	Forest-C-Low-All	2	2.001546	0.030000	601.000000
	3879980	4320	Forest-C-Med-All	2	25.130517	0.110000	404.000000
	3879980	4330	Forest-C-High-All	2	143.221706	0.280000	192.000000
	3879980	4410	Forest-D-Low-All	2	0.000000	0.050000	573.000000
	3879980	4420	Forest-D-Med-All	2	0.000000	0.150000	368.000000
	3879980	4430	Forest-D-High-All	2	0.000000	0.210000	255.000000
	3879980	5110	Scrub-A-Low-All	2	0.000000	0.050000	573.000000
	3879980	5120	Scrub-A-Med-All	2	0.222394	0.090000	460.000000
	3879980	5130	Scrub-A-High-All	2	0.000000	0.210000	255.000000
	3879980	5210	Scrub-B-Low-All	2	2.668727	0.040000	587.000000
	3879980	5220	Scrub-B-Med-All	2	2.891121	0.090000	446.000000
	3879980	5230	Scrub-B-High-All	2	0.444788	0.180000	284.000000
	3879980	5310	Scrub-C-Low-All	2	0.889576	0.040000	573.000000
	3879980	5320	Scrub-C-Med-All	2	12.231667	0.100000	418.000000
	3879980	5330	Scrub-C-High-All	2	52.262579	0.260000	206.000000
	3879980	5410	Scrub-D-Low-All	2	0.000000	0.050000	573.000000
	3879980	5420	Scrub-D-Med-All	2	0.000000	0.150000	368.000000
	3879980	5430	Scrub-D-High-All	2	0.000000	0.210000	255.000000
	3879980	6110	Grassland-A-Low-All	2	0.000000	0.050000	573.000000
	3879980	6120	Grassland-A-Med-All	2	0.222394	0.060000	573.000000
	3879980	6130	Grassland-A-High-All	2	0.000000	0.210000	255.000000
	3879980	6210	Grassland-B-Low-All	2	3.335909	0.030000	601.000000
	3879980	6220	Grassland-B-Med-All	2	12.454061	0.100000	425.000000
	3879980	6230	Grassland-B-High-All	2	8.895758	0.240000	220.000000
	3879980	6310	Grassland-C-Low-All	2	2.001546	0.030000	601.000000
	3879980	6320	Grassland-C-Med-All	2	11.342092	0.100000	418.000000
	3879980	6330	Grassland-C-High-All	2	55.598488	0.270000	199.000000
	3879980	6410	Grassland-D-Low-All	2	0.000000	0.050000	573.000000
	3879980	6420	Grassland-D-Med-All	2	0.000000	0.150000	368.000000
	3879980	6430	Grassland-D-High-All	2	0.000000	0.210000	255.000000
	3879980	7110	Pasture-A-Low-All	2	0.000000	0.050000	573.000000
	3879980	7120	Pasture-A-Med-All	2	0.000000	0.150000	368.000000
	3879980	7130	Pasture-A-High-All	2	0.000000	0.210000	255.000000
	3879980	7210	Pasture-B-Low-All	2	0.667182	0.040000	573.000000
	3879980	7220	Pasture-B-Med-All	2	0.444788	0.080000	467.000000
	3879980	7230	Pasture-B-High-All	2	0.222394	0.170000	298.000000
	3879980	7310	Pasture-C-Low-All	2	2.223940	0.040000	573.000000
	3879980	7320	Pasture-C-Med-All	2	16.457153	0.110000	411.000000
	3879980	7330	Pasture-C-High-All	2	30.023184	0.230000	234.000000
	3879980	7410	Pasture-D-Low-All	2	0.000000	0.050000	573.000000
	3879980	7420	Pasture-D-Med-All	2	0.000000	0.150000	368.000000
	3879980	7430	Pasture-D-High-All	2	0.000000	0.210000	255.000000
	3879980	8110	Agriculture-A-Low-All	2	0.000000	0.050000	573.000000
	3879980	8120	Agriculture-A-Med-All	2	0.000000	0.150000	368.000000
	3879980	8130	Agriculture-A-High-All	2	0.000000	0.210000	255.000000
	3879980	8210	Agriculture-B-Low-All	2	0.000000	0.050000	573.000000
	3879980	8220	Agriculture-B-Med-All	2	0.000000	0.150000	368.000000
	3879980	8230	Agriculture-B-High-All	2	0.000000	0.210000	255.000000
	3879980	8310	Agriculture-C-Low-All	2	8.450970	0.040000	587.000000
	3879980	8320	Agriculture-C-Med-All	2	32.247123	0.100000	418.000000
	3879980	8330	Agriculture-C-High-All	2	37.806972	0.230000	234.000000
	3879980	8410	Agriculture-D-Low-All	2	0.000000	0.050000	573.000000
	3879980	8420	Agriculture-D-Med-All	2	0.000000	0.150000	368.000000
	3879980	8430	Agriculture-D-High-All	2	0.000000	0.210000	255.000000
	3879980	9000	Water-All-All-All	2	0.667182	0.020000	658.000000
	3879980	10110	Irrigation-A-Low-All	2	0.000000	0.050000	573.000000
	3879980	10120	Irrigation-A-Med-All	2	0.000000	0.150000	368.000000
	3879980	10130	Irrigation-A-High-All	2	0.000000	0.210000	255.000000
	3879980	10210	Irrigation-B-Low-All	2	0.000000	0.050000	573.000000
	3879980	10220	Irrigation-B-Med-All	2	0.000000	0.150000	368.000000
	3879980	10230	Irrigation-B-High-All	2	0.000000	0.210000	255.000000
	3879980	10310	Irrigation-C-Low-All	2	0.000000	0.050000	573.000000
	3879980	10320	Irrigation-C-Med-All	2	0.000000	0.150000	368.000000
	3879980	10330	Irrigation-C-High-All	2	0.000000	0.210000	255.000000
	3879980	10410	Irrigation-D-Low-All	2	0.000000	0.050000	573.000000
	3879980	10420	Irrigation-D-Med-All	2	0.000000	0.150000	368.000000
	3879980	10430	Irrigation-D-High-All	2	0.000000	0.210000	255.000000
	3879982	1000	Developed_Impervious-All-All-All	1	1.549303	0.130000	382.000000
	3879982	2110	Developed_Pervious-A-Low-All	2	0.000000	0.050000	573.000000
	3879982	2120	Developed_Pervious-A-Med-All	2	0.000000	0.150000	368.000000
	3879982	2130	Developed_Pervious-A-High-All	2	0.000000	0.250000	213.000000
	3879982	2210	Developed_Pervious-B-Low-All	2	0.887953	0.040000	580.000000
	3879982	2220	Developed_Pervious-B-Med-All	2	6.060375	0.090000	453.000000
	3879982	2230	Developed_Pervious-B-High-All	2	3.538018	0.250000	213.000000
	3879982	2310	Developed_Pervious-C-Low-All	2	13.817904	0.040000	587.000000
	3879982	2320	Developed_Pervious-C-Med-All	2	50.100093	0.090000	439.000000
	3879982	2330	Developed_Pervious-C-High-All	2	29.017112	0.220000	248.000000
	3879982	2410	Developed_Pervious-D-Low-All	2	0.000000	0.050000	573.000000
	3879982	2420	Developed_Pervious-D-Med-All	2	0.444039	0.110000	404.000000
	3879982	2430	Developed_Pervious-D-High-All	2	0.222332	0.160000	368.000000
	3879982	3110	Barren-A-Low-All	2	0.000000	0.050000	573.000000
	3879982	3120	Barren-A-Med-All	2	0.000000	0.150000	368.000000
	3879982	3130	Barren-A-High-All	2	0.000000	0.250000	213.000000
	3879982	3210	Barren-B-Low-All	2	0.000000	0.050000	573.000000
	3879982	3220	Barren-B-Med-All	2	0.000000	0.150000	368.000000
	3879982	3230	Barren-B-High-All	2	0.000000	0.250000	213.000000
	3879982	3310	Barren-C-Low-All	2	0.000000	0.050000	573.000000
	3879982	3320	Barren-C-Med-All	2	0.000000	0.150000	368.000000
	3879982	3330	Barren-C-High-All	2	0.000000	0.250000	213.000000
	3879982	3410	Barren-D-Low-All	2	0.000000	0.050000	573.000000
	3879982	3420	Barren-D-Med-All	2	0.000000	0.150000	368.000000
	3879982	3430	Barren-D-High-All	2	0.000000	0.250000	213.000000
	3879982	4110	Forest-A-Low-All	2	0.000000	0.050000	573.000000
	3879982	4120	Forest-A-Med-All	2	0.000000	0.150000	368.000000
	3879982	4130	Forest-A-High-All	2	0.000000	0.250000	213.000000
	3879982	4210	Forest-B-Low-All	2	1.111970	0.030000	587.000000
	3879982	4220	Forest-B-Med-All	2	18.013910	0.110000	411.000000
	3879982	4230	Forest-B-High-All	2	235.515197	0.470000	121.000000
	3879982	4310	Forest-C-Low-All	2	12.009274	0.030000	601.000000
	3879982	4320	Forest-C-Med-All	2	108.528249	0.110000	411.000000
	3879982	4330	Forest-C-High-All	2	453.461272	0.300000	178.000000
	3879982	4410	Forest-D-Low-All	2	0.000000	0.050000	573.000000
	3879982	4420	Forest-D-Med-All	2	2.001546	0.110000	396.000000
	3879982	4430	Forest-D-High-All	2	3.558303	0.210000	255.000000
	3879982	5110	Scrub-A-Low-All	2	0.000000	0.050000	573.000000
	3879982	5120	Scrub-A-Med-All	2	0.000000	0.150000	368.000000
	3879982	5130	Scrub-A-High-All	2	0.000000	0.250000	213.000000
	3879982	5210	Scrub-B-Low-All	2	4.003091	0.030000	601.000000
	3879982	5220	Scrub-B-Med-All	2	13.121243	0.090000	453.000000
	3879982	5230	Scrub-B-High-All	2	3.335909	0.410000	135.000000
	3879982	5310	Scrub-C-Low-All	2	14.233213	0.040000	587.000000
	3879982	5320	Scrub-C-Med-All	2	110.974583	0.110000	411.000000
	3879982	5330	Scrub-C-High-All	2	109.640219	0.230000	234.000000
	3879982	5410	Scrub-D-Low-All	2	0.000000	0.050000	573.000000
	3879982	5420	Scrub-D-Med-All	2	0.667182	0.130000	368.000000
	3879982	5430	Scrub-D-High-All	2	11.119698	0.220000	241.000000
	3879982	6110	Grassland-A-Low-All	2	0.000000	0.050000	573.000000
	3879982	6120	Grassland-A-Med-All	2	0.000000	0.150000	368.000000
	3879982	6130	Grassland-A-High-All	2	0.000000	0.250000	213.000000
	3879982	6210	Grassland-B-Low-All	2	0.000000	0.050000	573.000000
	3879982	6220	Grassland-B-Med-All	2	2.891121	0.100000	432.000000
	3879982	6230	Grassland-B-High-All	2	1.334364	0.170000	298.000000
	3879982	6310	Grassland-C-Low-All	2	3.113515	0.030000	601.000000
	3879982	6320	Grassland-C-Med-All	2	25.797699	0.100000	418.000000
	3879982	6330	Grassland-C-High-All	2	16.012365	0.200000	262.000000
	3879982	6410	Grassland-D-Low-All	2	0.000000	0.050000	573.000000
	3879982	6420	Grassland-D-Med-All	2	0.222394	0.150000	368.000000
	3879982	6430	Grassland-D-High-All	2	6.671819	0.230000	234.000000
	3879982	7110	Pasture-A-Low-All	2	0.000000	0.050000	573.000000
	3879982	7120	Pasture-A-Med-All	2	0.000000	0.150000	368.000000
	3879982	7130	Pasture-A-High-All	2	0.000000	0.250000	213.000000
	3879982	7210	Pasture-B-Low-All	2	0.222394	0.030000	601.000000
	3879982	7220	Pasture-B-Med-All	2	1.111970	0.100000	432.000000
	3879982	7230	Pasture-B-High-All	2	1.111970	0.350000	156.000000
	3879982	7310	Pasture-C-Low-All	2	3.780697	0.030000	594.000000
	3879982	7320	Pasture-C-Med-All	2	23.796153	0.110000	411.000000
	3879982	7330	Pasture-C-High-All	2	10.007728	0.270000	199.000000
	3879982	7410	Pasture-D-Low-All	2	0.000000	0.050000	573.000000
	3879982	7420	Pasture-D-Med-All	2	0.000000	0.150000	368.000000
	3879982	7430	Pasture-D-High-All	2	4.225485	0.230000	234.000000
	3879982	8110	Agriculture-A-Low-All	2	0.000000	0.050000	573.000000
	3879982	8120	Agriculture-A-Med-All	2	0.000000	0.150000	368.000000
	3879982	8130	Agriculture-A-High-All	2	0.000000	0.250000	213.000000
	3879982	8210	Agriculture-B-Low-All	2	0.000000	0.050000	573.000000
	3879982	8220	Agriculture-B-Med-All	2	0.189035	0.090000	446.000000
	3879982	8230	Agriculture-B-High-All	2	0.378070	0.390000	135.000000
	3879982	8310	Agriculture-C-Low-All	2	0.189035	0.030000	601.000000
	3879982	8320	Agriculture-C-Med-All	2	8.506569	0.110000	418.000000
	3879982	8330	Agriculture-C-High-All	2	1.512279	0.160000	368.000000
	3879982	8410	Agriculture-D-Low-All	2	0.000000	0.050000	573.000000
	3879982	8420	Agriculture-D-Med-All	2	0.189035	0.140000	368.000000
	3879982	8430	Agriculture-D-High-All	2	3.402627	0.200000	262.000000
	3879982	9000	Water-All-All-All	2	0.000000	0.250000	213.000000
	3879982	10110	Irrigation-A-Low-All	2	0.000000	0.050000	573.000000
	3879982	10120	Irrigation-A-Med-All	2	0.000000	0.150000	368.000000
	3879982	10130	Irrigation-A-High-All	2	0.000000	0.250000	213.000000
	3879982	10210	Irrigation-B-Low-All	2	0.000000	0.050000	573.000000
	3879982	10220	Irrigation-B-Med-All	2	0.033359	0.150000	368.000000
	3879982	10230	Irrigation-B-High-All	2	0.066718	0.250000	213.000000
	3879982	10310	Irrigation-C-Low-All	2	0.033359	0.050000	573.000000
	3879982	10320	Irrigation-C-Med-All	2	1.501159	0.150000	368.000000
	3879982	10330	Irrigation-C-High-All	2	0.266873	0.250000	213.000000
	3879982	10410	Irrigation-D-Low-All	2	0.000000	0.050000	573.000000
	3879982	10420	Irrigation-D-Med-All	2	0.033359	0.150000	368.000000
	3879982	10430	Irrigation-D-High-All	2	0.600464	0.250000	213.000000
	3879984	1000	Developed_Impervious-All-All-All	1	0.105053	0.200000	262.000000
	3879984	2110	Developed_Pervious-A-Low-All	2	0.000000	0.050000	573.000000
	3879984	2120	Developed_Pervious-A-Med-All	2	0.000000	0.150000	368.000000
	3879984	2130	Developed_Pervious-A-High-All	2	0.000000	0.260000	206.000000
	3879984	2210	Developed_Pervious-B-Low-All	2	0.000000	0.050000	573.000000
	3879984	2220	Developed_Pervious-B-Med-All	2	1.016092	0.110000	404.000000
	3879984	2230	Developed_Pervious-B-High-All	2	0.667052	0.230000	234.000000
	3879984	2310	Developed_Pervious-C-Low-All	2	1.556195	0.020000	622.000000
	3879984	2320	Developed_Pervious-C-Med-All	2	8.002071	0.100000	425.000000
	3879984	2330	Developed_Pervious-C-High-All	2	13.561660	0.290000	185.000000
	3879984	2410	Developed_Pervious-D-Low-All	2	0.000000	0.050000	573.000000
	3879984	2420	Developed_Pervious-D-Med-All	2	0.000000	0.150000	368.000000
	3879984	2430	Developed_Pervious-D-High-All	2	0.000000	0.260000	206.000000
	3879984	3110	Barren-A-Low-All	2	0.000000	0.050000	573.000000
	3879984	3120	Barren-A-Med-All	2	0.000000	0.150000	368.000000
	3879984	3130	Barren-A-High-All	2	0.000000	0.260000	206.000000
	3879984	3210	Barren-B-Low-All	2	0.000000	0.050000	573.000000
	3879984	3220	Barren-B-Med-All	2	0.000000	0.150000	368.000000
	3879984	3230	Barren-B-High-All	2	0.000000	0.260000	206.000000
	3879984	3310	Barren-C-Low-All	2	0.000000	0.050000	573.000000
	3879984	3320	Barren-C-Med-All	2	0.000000	0.150000	368.000000
	3879984	3330	Barren-C-High-All	2	0.000000	0.260000	206.000000
	3879984	3410	Barren-D-Low-All	2	0.000000	0.050000	573.000000
	3879984	3420	Barren-D-Med-All	2	0.000000	0.150000	368.000000
	3879984	3430	Barren-D-High-All	2	0.000000	0.260000	206.000000
	3879984	4110	Forest-A-Low-All	2	0.000000	0.050000	573.000000
	3879984	4120	Forest-A-Med-All	2	0.000000	0.150000	368.000000
	3879984	4130	Forest-A-High-All	2	0.000000	0.260000	206.000000
	3879984	4210	Forest-B-Low-All	2	1.111970	0.040000	573.000000
	3879984	4220	Forest-B-Med-All	2	15.567577	0.110000	411.000000
	3879984	4230	Forest-B-High-All	2	37.139790	0.240000	220.000000
	3879984	4310	Forest-C-Low-All	2	7.783788	0.030000	608.000000
	3879984	4320	Forest-C-Med-All	2	33.803881	0.110000	411.000000
	3879984	4330	Forest-C-High-All	2	263.981623	0.330000	164.000000
	3879984	4410	Forest-D-Low-All	2	0.000000	0.050000	573.000000
	3879984	4420	Forest-D-Med-All	2	0.222394	0.080000	481.000000
	3879984	4430	Forest-D-High-All	2	0.000000	0.260000	206.000000
	3879984	5110	Scrub-A-Low-All	2	0.000000	0.050000	573.000000
	3879984	5120	Scrub-A-Med-All	2	0.000000	0.150000	368.000000
	3879984	5130	Scrub-A-High-All	2	0.000000	0.260000	206.000000
	3879984	5210	Scrub-B-Low-All	2	2.891121	0.030000	594.000000
	3879984	5220	Scrub-B-Med-All	2	18.903486	0.100000	425.000000
	3879984	5230	Scrub-B-High-All	2	32.247123	0.250000	213.000000
	3879984	5310	Scrub-C-Low-All	2	6.671819	0.030000	608.000000
	3879984	5320	Scrub-C-Med-All	2	60.268761	0.110000	404.000000
	3879984	5330	Scrub-C-High-All	2	290.668898	0.280000	185.000000
	3879984	5410	Scrub-D-Low-All	2	0.222394	0.030000	608.000000
	3879984	5420	Scrub-D-Med-All	2	0.222394	0.110000	404.000000
	3879984	5430	Scrub-D-High-All	2	0.000000	0.260000	206.000000
	3879984	6110	Grassland-A-Low-All	2	0.000000	0.050000	573.000000
	3879984	6120	Grassland-A-Med-All	2	0.000000	0.150000	368.000000
	3879984	6130	Grassland-A-High-All	2	0.000000	0.260000	206.000000
	3879984	6210	Grassland-B-Low-All	2	0.000000	0.050000	573.000000
	3879984	6220	Grassland-B-Med-All	2	1.111970	0.110000	411.000000
	3879984	6230	Grassland-B-High-All	2	7.561394	0.250000	213.000000
	3879984	6310	Grassland-C-Low-All	2	0.444788	0.040000	573.000000
	3879984	6320	Grassland-C-Med-All	2	3.780697	0.110000	396.000000
	3879984	6330	Grassland-C-High-All	2	37.806972	0.280000	185.000000
	3879984	6410	Grassland-D-Low-All	2	0.000000	0.050000	573.000000
	3879984	6420	Grassland-D-Med-All	2	0.000000	0.150000	368.000000
	3879984	6430	Grassland-D-High-All	2	0.000000	0.260000	206.000000
	3879984	7110	Pasture-A-Low-All	2	0.000000	0.050000	573.000000
	3879984	7120	Pasture-A-Med-All	2	0.000000	0.150000	368.000000
	3879984	7130	Pasture-A-High-All	2	0.000000	0.260000	206.000000
	3879984	7210	Pasture-B-Low-All	2	0.000000	0.050000	573.000000
	3879984	7220	Pasture-B-Med-All	2	1.334364	0.120000	396.000000
	3879984	7230	Pasture-B-High-All	2	3.335909	0.240000	220.000000
	3879984	7310	Pasture-C-Low-All	2	1.556758	0.030000	601.000000
	3879984	7320	Pasture-C-Med-All	2	6.004637	0.110000	404.000000
	3879984	7330	Pasture-C-High-All	2	31.135154	0.290000	185.000000
	3879984	7410	Pasture-D-Low-All	2	0.000000	0.050000	573.000000
	3879984	7420	Pasture-D-Med-All	2	0.000000	0.150000	368.000000
	3879984	7430	Pasture-D-High-All	2	0.000000	0.260000	206.000000
	3879984	8110	Agriculture-A-Low-All	2	0.000000	0.050000	573.000000
	3879984	8120	Agriculture-A-Med-All	2	0.000000	0.150000	368.000000
	3879984	8130	Agriculture-A-High-All	2	0.000000	0.260000	206.000000
	3879984	8210	Agriculture-B-Low-All	2	0.222394	0.040000	573.000000
	3879984	8220	Agriculture-B-Med-All	2	0.444788	0.070000	488.000000
	3879984	8230	Agriculture-B-High-All	2	0.000000	0.260000	206.000000
	3879984	8310	Agriculture-C-Low-All	2	0.000000	0.050000	573.000000
	3879984	8320	Agriculture-C-Med-All	2	1.111970	0.090000	439.000000
	3879984	8330	Agriculture-C-High-All	2	1.556758	0.370000	142.000000
	3879984	8410	Agriculture-D-Low-All	2	0.000000	0.050000	573.000000
	3879984	8420	Agriculture-D-Med-All	2	0.000000	0.150000	368.000000
	3879984	8430	Agriculture-D-High-All	2	0.000000	0.260000	206.000000
	3879984	9000	Water-All-All-All	2	0.667182	0.120000	396.000000
	3879984	10110	Irrigation-A-Low-All	2	0.000000	0.050000	573.000000
	3879984	10120	Irrigation-A-Med-All	2	0.000000	0.150000	368.000000
	3879984	10130	Irrigation-A-High-All	2	0.000000	0.260000	206.000000
	3879984	10210	Irrigation-B-Low-All	2	0.000000	0.050000	573.000000
	3879984	10220	Irrigation-B-Med-All	2	0.000000	0.150000	368.000000
	3879984	10230	Irrigation-B-High-All	2	0.000000	0.260000	206.000000
	3879984	10310	Irrigation-C-Low-All	2	0.000000	0.050000	573.000000
	3879984	10320	Irrigation-C-Med-All	2	0.000000	0.150000	368.000000
	3879984	10330	Irrigation-C-High-All	2	0.000000	0.260000	206.000000
	3879984	10410	Irrigation-D-Low-All	2	0.000000	0.050000	573.000000
	3879984	10420	Irrigation-D-Med-All	2	0.000000	0.150000	368.000000
	3879984	10430	Irrigation-D-High-All	2	0.000000	0.260000	206.000000
	3879986	1000	Developed_Impervious-All-All-All	1	0.059105	0.140000	368.000000
	3879986	2110	Developed_Pervious-A-Low-All	2	0.000000	0.050000	573.000000
	3879986	2120	Developed_Pervious-A-Med-All	2	0.000000	0.150000	368.000000
	3879986	2130	Developed_Pervious-A-High-All	2	0.000000	0.260000	206.000000
	3879986	2210	Developed_Pervious-B-Low-All	2	0.000000	0.050000	573.000000
	3879986	2220	Developed_Pervious-B-Med-All	2	2.665914	0.110000	404.000000
	3879986	2230	Developed_Pervious-B-High-All	2	1.554371	0.170000	368.000000
	3879986	2310	Developed_Pervious-C-Low-All	2	2.442582	0.030000	594.000000
	3879986	2320	Developed_Pervious-C-Med-All	2	3.331221	0.100000	418.000000
	3879986	2330	Developed_Pervious-C-High-All	2	3.735232	0.230000	234.000000
	3879986	2410	Developed_Pervious-D-Low-All	2	0.000000	0.050000	573.000000
	3879986	2420	Developed_Pervious-D-Med-All	2	0.000000	0.150000	368.000000
	3879986	2430	Developed_Pervious-D-High-All	2	0.000000	0.260000	206.000000
	3879986	3110	Barren-A-Low-All	2	0.000000	0.050000	573.000000
	3879986	3120	Barren-A-Med-All	2	0.000000	0.150000	368.000000
	3879986	3130	Barren-A-High-All	2	0.000000	0.260000	206.000000
	3879986	3210	Barren-B-Low-All	2	0.000000	0.050000	573.000000
	3879986	3220	Barren-B-Med-All	2	0.000000	0.150000	368.000000
	3879986	3230	Barren-B-High-All	2	0.000000	0.260000	206.000000
	3879986	3310	Barren-C-Low-All	2	0.000000	0.050000	573.000000
	3879986	3320	Barren-C-Med-All	2	0.000000	0.150000	368.000000
	3879986	3330	Barren-C-High-All	2	0.000000	0.260000	206.000000
	3879986	3410	Barren-D-Low-All	2	0.000000	0.050000	573.000000
	3879986	3420	Barren-D-Med-All	2	0.000000	0.150000	368.000000
	3879986	3430	Barren-D-High-All	2	0.000000	0.260000	206.000000
	3879986	4110	Forest-A-Low-All	2	0.000000	0.050000	573.000000
	3879986	4120	Forest-A-Med-All	2	0.000000	0.150000	368.000000
	3879986	4130	Forest-A-High-All	2	0.000000	0.260000	206.000000
	3879986	4210	Forest-B-Low-All	2	1.334364	0.030000	608.000000
	3879986	4220	Forest-B-Med-All	2	14.010819	0.110000	411.000000
	3879986	4230	Forest-B-High-All	2	153.674222	0.320000	171.000000
	3879986	4310	Forest-C-Low-All	2	6.449425	0.030000	594.000000
	3879986	4320	Forest-C-Med-All	2	50.038640	0.110000	411.000000
	3879986	4330	Forest-C-High-All	2	319.802505	0.340000	156.000000
	3879986	4410	Forest-D-Low-All	2	0.000000	0.050000	573.000000
	3879986	4420	Forest-D-Med-All	2	0.000000	0.150000	368.000000
	3879986	4430	Forest-D-High-All	2	0.000000	0.260000	206.000000
	3879986	5110	Scrub-A-Low-All	2	0.000000	0.050000	573.000000
	3879986	5120	Scrub-A-Med-All	2	0.000000	0.150000	368.000000
	3879986	5130	Scrub-A-High-All	2	0.000000	0.260000	206.000000
	3879986	5210	Scrub-B-Low-All	2	0.222394	0.040000	587.000000
	3879986	5220	Scrub-B-Med-All	2	4.670273	0.100000	418.000000
	3879986	5230	Scrub-B-High-All	2	17.346728	0.260000	206.000000
	3879986	5310	Scrub-C-Low-All	2	7.561394	0.030000	615.000000
	3879986	5320	Scrub-C-Med-All	2	15.567577	0.110000	411.000000
	3879986	5330	Scrub-C-High-All	2	40.253306	0.280000	192.000000
	3879986	5410	Scrub-D-Low-All	2	0.000000	0.050000	573.000000
	3879986	5420	Scrub-D-Med-All	2	0.000000	0.150000	368.000000
	3879986	5430	Scrub-D-High-All	2	0.000000	0.260000	206.000000
	3879986	6110	Grassland-A-Low-All	2	0.000000	0.050000	573.000000
	3879986	6120	Grassland-A-Med-All	2	0.000000	0.150000	368.000000
	3879986	6130	Grassland-A-High-All	2	0.000000	0.260000	206.000000
	3879986	6210	Grassland-B-Low-All	2	0.667182	0.040000	580.000000
	3879986	6220	Grassland-B-Med-All	2	6.671819	0.110000	404.000000
	3879986	6230	Grassland-B-High-All	2	25.575305	0.250000	213.000000
	3879986	6310	Grassland-C-Low-All	2	10.897304	0.030000	594.000000
	3879986	6320	Grassland-C-Med-All	2	39.141336	0.100000	425.000000
	3879986	6330	Grassland-C-High-All	2	83.175339	0.260000	206.000000
	3879986	6410	Grassland-D-Low-All	2	0.000000	0.050000	573.000000
	3879986	6420	Grassland-D-Med-All	2	0.000000	0.150000	368.000000
	3879986	6430	Grassland-D-High-All	2	0.000000	0.260000	206.000000
	3879986	7110	Pasture-A-Low-All	2	0.000000	0.050000	573.000000
	3879986	7120	Pasture-A-Med-All	2	0.000000	0.150000	368.000000
	3879986	7130	Pasture-A-High-All	2	0.000000	0.260000	206.000000
	3879986	7210	Pasture-B-Low-All	2	3.335909	0.030000	601.000000
	3879986	7220	Pasture-B-Med-All	2	17.124334	0.110000	404.000000
	3879986	7230	Pasture-B-High-All	2	10.230122	0.210000	255.000000
	3879986	7310	Pasture-C-Low-All	2	7.116607	0.020000	622.000000
	3879986	7320	Pasture-C-Med-All	2	12.676455	0.110000	411.000000
	3879986	7330	Pasture-C-High-All	2	50.705821	0.270000	199.000000
	3879986	7410	Pasture-D-Low-All	2	0.000000	0.050000	573.000000
	3879986	7420	Pasture-D-Med-All	2	0.000000	0.150000	368.000000
	3879986	7430	Pasture-D-High-All	2	0.000000	0.260000	206.000000
	3879986	8110	Agriculture-A-Low-All	2	0.000000	0.050000	573.000000
	3879986	8120	Agriculture-A-Med-All	2	0.000000	0.150000	368.000000
	3879986	8130	Agriculture-A-High-All	2	0.000000	0.260000	206.000000
	3879986	8210	Agriculture-B-Low-All	2	0.000000	0.050000	573.000000
	3879986	8220	Agriculture-B-Med-All	2	0.189035	0.120000	382.000000
	3879986	8230	Agriculture-B-High-All	2	1.701314	0.260000	206.000000
	3879986	8310	Agriculture-C-Low-All	2	3.024558	0.030000	608.000000
	3879986	8320	Agriculture-C-Med-All	2	15.122789	0.100000	418.000000
	3879986	8330	Agriculture-C-High-All	2	13.421475	0.250000	220.000000
	3879986	8410	Agriculture-D-Low-All	2	0.000000	0.050000	573.000000
	3879986	8420	Agriculture-D-Med-All	2	0.000000	0.150000	368.000000
	3879986	8430	Agriculture-D-High-All	2	0.000000	0.260000	206.000000
	3879986	9000	Water-All-All-All	2	0.222394	0.020000	651.000000
	3879986	10110	Irrigation-A-Low-All	2	0.000000	0.050000	573.000000
	3879986	10120	Irrigation-A-Med-All	2	0.000000	0.150000	368.000000
	3879986	10130	Irrigation-A-High-All	2	0.000000	0.260000	206.000000
	3879986	10210	Irrigation-B-Low-All	2	0.000000	0.050000	573.000000
	3879986	10220	Irrigation-B-Med-All	2	0.033359	0.150000	368.000000
	3879986	10230	Irrigation-B-High-All	2	0.300232	0.260000	206.000000
	3879986	10310	Irrigation-C-Low-All	2	0.533745	0.050000	573.000000
	3879986	10320	Irrigation-C-Med-All	2	2.668727	0.150000	368.000000
	3879986	10330	Irrigation-C-High-All	2	2.368496	0.260000	206.000000
	3879986	10410	Irrigation-D-Low-All	2	0.000000	0.050000	573.000000
	3879986	10420	Irrigation-D-Med-All	2	0.000000	0.150000	368.000000
	3879986	10430	Irrigation-D-High-All	2	0.000000	0.260000	206.000000
	3879988	1000	Developed_Impervious-All-All-All	1	0.584189	0.180000	298.000000
	3879988	2110	Developed_Pervious-A-Low-All	2	0.000000	0.050000	573.000000
	3879988	2120	Developed_Pervious-A-Med-All	2	0.000000	0.150000	368.000000
	3879988	2130	Developed_Pervious-A-High-All	2	0.000000	0.230000	234.000000
	3879988	2210	Developed_Pervious-B-Low-All	2	0.000000	0.050000	573.000000
	3879988	2220	Developed_Pervious-B-Med-All	2	0.221787	0.090000	446.000000
	3879988	2230	Developed_Pervious-B-High-All	2	0.667016	0.240000	227.000000
	3879988	2310	Developed_Pervious-C-Low-All	2	3.390627	0.030000	615.000000
	3879988	2320	Developed_Pervious-C-Med-All	2	22.640041	0.100000	425.000000
	3879988	2330	Developed_Pervious-C-High-All	2	37.212980	0.240000	220.000000
	3879988	2410	Developed_Pervious-D-Low-All	2	0.000000	0.050000	573.000000
	3879988	2420	Developed_Pervious-D-Med-All	2	0.000000	0.150000	368.000000
	3879988	2430	Developed_Pervious-D-High-All	2	0.000000	0.230000	234.000000
	3879988	3110	Barren-A-Low-All	2	0.000000	0.050000	573.000000
	3879988	3120	Barren-A-Med-All	2	0.000000	0.150000	368.000000
	3879988	3130	Barren-A-High-All	2	0.000000	0.230000	234.000000
	3879988	3210	Barren-B-Low-All	2	0.000000	0.050000	573.000000
	3879988	3220	Barren-B-Med-All	2	0.000000	0.150000	368.000000
	3879988	3230	Barren-B-High-All	2	0.000000	0.230000	234.000000
	3879988	3310	Barren-C-Low-All	2	0.000000	0.050000	573.000000
	3879988	3320	Barren-C-Med-All	2	0.000000	0.150000	368.000000
	3879988	3330	Barren-C-High-All	2	0.000000	0.230000	234.000000
	3879988	3410	Barren-D-Low-All	2	0.000000	0.050000	573.000000
	3879988	3420	Barren-D-Med-All	2	0.000000	0.150000	368.000000
	3879988	3430	Barren-D-High-All	2	0.000000	0.230000	234.000000
	3879988	4110	Forest-A-Low-All	2	0.000000	0.050000	573.000000
	3879988	4120	Forest-A-Med-All	2	0.000000	0.150000	368.000000
	3879988	4130	Forest-A-High-All	2	0.000000	0.230000	234.000000
	3879988	4210	Forest-B-Low-All	2	0.444788	0.030000	594.000000
	3879988	4220	Forest-B-Med-All	2	4.003091	0.110000	404.000000
	3879988	4230	Forest-B-High-All	2	42.032457	0.320000	171.000000
	3879988	4310	Forest-C-Low-All	2	7.116607	0.030000	594.000000
	3879988	4320	Forest-C-Med-All	2	64.049459	0.110000	404.000000
	3879988	4330	Forest-C-High-All	2	328.031082	0.290000	185.000000
	3879988	4410	Forest-D-Low-All	2	0.000000	0.050000	573.000000
	3879988	4420	Forest-D-Med-All	2	0.000000	0.150000	368.000000
	3879988	4430	Forest-D-High-All	2	0.000000	0.230000	234.000000
	3879988	5110	Scrub-A-Low-All	2	0.000000	0.050000	573.000000
	3879988	5120	Scrub-A-Med-All	2	0.000000	0.150000	368.000000
	3879988	5130	Scrub-A-High-All	2	0.000000	0.230000	234.000000
	3879988	5210	Scrub-B-Low-All	2	0.667182	0.050000	573.000000
	3879988	5220	Scrub-B-Med-All	2	4.670273	0.090000	446.000000
	3879988	5230	Scrub-B-High-All	2	1.779152	0.200000	262.000000
	3879988	5310	Scrub-C-Low-All	2	4.447879	0.030000	615.000000
	3879988	5320	Scrub-C-Med-All	2	14.900395	0.110000	418.000000
	3879988	5330	Scrub-C-High-All	2	27.799244	0.240000	227.000000
	3879988	5410	Scrub-D-Low-All	2	0.000000	0.050000	573.000000
	3879988	5420	Scrub-D-Med-All	2	0.000000	0.150000	368.000000
	3879988	5430	Scrub-D-High-All	2	0.000000	0.230000	234.000000
	3879988	6110	Grassland-A-Low-All	2	0.000000	0.050000	573.000000
	3879988	6120	Grassland-A-Med-All	2	0.000000	0.150000	368.000000
	3879988	6130	Grassland-A-High-All	2	0.000000	0.230000	234.000000
	3879988	6210	Grassland-B-Low-All	2	0.222394	0.040000	573.000000
	3879988	6220	Grassland-B-Med-All	2	0.000000	0.150000	368.000000
	3879988	6230	Grassland-B-High-All	2	1.334364	0.190000	284.000000
	3879988	6310	Grassland-C-Low-All	2	10.674910	0.030000	608.000000
	3879988	6320	Grassland-C-Med-All	2	24.685729	0.100000	432.000000
	3879988	6330	Grassland-C-High-All	2	43.366821	0.240000	227.000000
	3879988	6410	Grassland-D-Low-All	2	0.000000	0.050000	573.000000
	3879988	6420	Grassland-D-Med-All	2	0.000000	0.150000	368.000000
	3879988	6430	Grassland-D-High-All	2	0.000000	0.230000	234.000000
	3879988	7110	Pasture-A-Low-All	2	0.000000	0.050000	573.000000
	3879988	7120	Pasture-A-Med-All	2	0.000000	0.150000	368.000000
	3879988	7130	Pasture-A-High-All	2	0.000000	0.230000	234.000000
	3879988	7210	Pasture-B-Low-All	2	1.111970	0.040000	580.000000
	3879988	7220	Pasture-B-Med-All	2	5.337455	0.090000	453.000000
	3879988	7230	Pasture-B-High-All	2	1.779152	0.180000	298.000000
	3879988	7310	Pasture-C-Low-All	2	11.119698	0.030000	608.000000
	3879988	7320	Pasture-C-Med-All	2	8.673364	0.090000	446.000000
	3879988	7330	Pasture-C-High-All	2	14.455607	0.240000	227.000000
	3879988	7410	Pasture-D-Low-All	2	0.000000	0.050000	573.000000
	3879988	7420	Pasture-D-Med-All	2	0.000000	0.150000	368.000000
	3879988	7430	Pasture-D-High-All	2	0.000000	0.230000	234.000000
	3879988	8110	Agriculture-A-Low-All	2	0.000000	0.050000	573.000000
	3879988	8120	Agriculture-A-Med-All	2	0.000000	0.150000	368.000000
	3879988	8130	Agriculture-A-High-All	2	0.000000	0.230000	234.000000
	3879988	8210	Agriculture-B-Low-All	2	0.000000	0.050000	573.000000
	3879988	8220	Agriculture-B-Med-All	2	0.000000	0.150000	368.000000
	3879988	8230	Agriculture-B-High-All	2	0.444788	0.210000	255.000000
	3879988	8310	Agriculture-C-Low-All	2	2.001546	0.030000	615.000000
	3879988	8320	Agriculture-C-Med-All	2	3.113515	0.090000	446.000000
	3879988	8330	Agriculture-C-High-All	2	1.334364	0.300000	178.000000
	3879988	8410	Agriculture-D-Low-All	2	0.000000	0.050000	573.000000
	3879988	8420	Agriculture-D-Med-All	2	0.000000	0.150000	368.000000
	3879988	8430	Agriculture-D-High-All	2	0.000000	0.230000	234.000000
	3879988	9000	Water-All-All-All	2	0.000000	0.230000	234.000000
	3879988	10110	Irrigation-A-Low-All	2	0.000000	0.050000	573.000000
	3879988	10120	Irrigation-A-Med-All	2	0.000000	0.150000	368.000000
	3879988	10130	Irrigation-A-High-All	2	0.000000	0.230000	234.000000
	3879988	10210	Irrigation-B-Low-All	2	0.000000	0.050000	573.000000
	3879988	10220	Irrigation-B-Med-All	2	0.000000	0.150000	368.000000
	3879988	10230	Irrigation-B-High-All	2	0.000000	0.230000	234.000000
	3879988	10310	Irrigation-C-Low-All	2	0.000000	0.050000	573.000000
	3879988	10320	Irrigation-C-Med-All	2	0.000000	0.150000	368.000000
	3879988	10330	Irrigation-C-High-All	2	0.000000	0.230000	234.000000
	3879988	10410	Irrigation-D-Low-All	2	0.000000	0.050000	573.000000
	3879988	10420	Irrigation-D-Med-All	2	0.000000	0.150000	368.000000
	3879988	10430	Irrigation-D-High-All	2	0.000000	0.230000	234.000000
	3879990	1000	Developed_Impervious-All-All-All	1	0.258197	0.040000	587.000000
	3879990	2110	Developed_Pervious-A-Low-All	2	0.000000	0.040000	580.000000
	3879990	2120	Developed_Pervious-A-Med-All	2	0.000000	0.050000	573.000000
	3879990	2130	Developed_Pervious-A-High-All	2	0.000000	0.150000	368.000000
	3879990	2210	Developed_Pervious-B-Low-All	2	2.985934	0.030000	601.000000
	3879990	2220	Developed_Pervious-B-Med-All	2	2.379831	0.070000	516.000000
	3879990	2230	Developed_Pervious-B-High-All	2	0.000000	0.150000	368.000000
	3879990	2310	Developed_Pervious-C-Low-All	2	2.829490	0.020000	644.000000
	3879990	2320	Developed_Pervious-C-Med-All	2	0.219912	0.060000	573.000000
	3879990	2330	Developed_Pervious-C-High-All	2	0.000000	0.150000	368.000000
	3879990	2410	Developed_Pervious-D-Low-All	2	0.000000	0.040000	580.000000
	3879990	2420	Developed_Pervious-D-Med-All	2	0.000000	0.050000	573.000000
	3879990	2430	Developed_Pervious-D-High-All	2	0.000000	0.150000	368.000000
	3879990	3110	Barren-A-Low-All	2	0.000000	0.040000	580.000000
	3879990	3120	Barren-A-Med-All	2	0.000000	0.050000	573.000000
	3879990	3130	Barren-A-High-All	2	0.000000	0.150000	368.000000
	3879990	3210	Barren-B-Low-All	2	0.000000	0.040000	580.000000
	3879990	3220	Barren-B-Med-All	2	0.000000	0.050000	573.000000
	3879990	3230	Barren-B-High-All	2	0.000000	0.150000	368.000000
	3879990	3310	Barren-C-Low-All	2	0.000000	0.040000	580.000000
	3879990	3320	Barren-C-Med-All	2	0.000000	0.050000	573.000000
	3879990	3330	Barren-C-High-All	2	0.000000	0.150000	368.000000
	3879990	3410	Barren-D-Low-All	2	0.000000	0.040000	580.000000
	3879990	3420	Barren-D-Med-All	2	0.000000	0.050000	573.000000
	3879990	3430	Barren-D-High-All	2	0.000000	0.150000	368.000000
	3879990	4110	Forest-A-Low-All	2	0.000000	0.040000	580.000000
	3879990	4120	Forest-A-Med-All	2	0.000000	0.050000	573.000000
	3879990	4130	Forest-A-High-All	2	0.000000	0.150000	368.000000
	3879990	4210	Forest-B-Low-All	2	0.000000	0.040000	580.000000
	3879990	4220	Forest-B-Med-All	2	0.000000	0.050000	573.000000
	3879990	4230	Forest-B-High-All	2	0.000000	0.150000	368.000000
	3879990	4310	Forest-C-Low-All	2	0.000000	0.040000	580.000000
	3879990	4320	Forest-C-Med-All	2	0.000000	0.050000	573.000000
	3879990	4330	Forest-C-High-All	2	0.000000	0.150000	368.000000
	3879990	4410	Forest-D-Low-All	2	0.000000	0.040000	580.000000
	3879990	4420	Forest-D-Med-All	2	0.000000	0.050000	573.000000
	3879990	4430	Forest-D-High-All	2	0.000000	0.150000	368.000000
	3879990	5110	Scrub-A-Low-All	2	0.000000	0.040000	580.000000
	3879990	5120	Scrub-A-Med-All	2	0.000000	0.050000	573.000000
	3879990	5130	Scrub-A-High-All	2	0.000000	0.150000	368.000000
	3879990	5210	Scrub-B-Low-All	2	0.000000	0.040000	580.000000
	3879990	5220	Scrub-B-Med-All	2	0.000000	0.050000	573.000000
	3879990	5230	Scrub-B-High-All	2	0.000000	0.150000	368.000000
	3879990	5310	Scrub-C-Low-All	2	3.558303	0.020000	629.000000
	3879990	5320	Scrub-C-Med-All	2	0.000000	0.050000	573.000000
	3879990	5330	Scrub-C-High-All	2	0.000000	0.150000	368.000000
	3879990	5410	Scrub-D-Low-All	2	0.000000	0.040000	580.000000
	3879990	5420	Scrub-D-Med-All	2	0.000000	0.050000	573.000000
	3879990	5430	Scrub-D-High-All	2	0.000000	0.150000	368.000000
	3879990	6110	Grassland-A-Low-All	2	0.000000	0.040000	580.000000
	3879990	6120	Grassland-A-Med-All	2	0.000000	0.050000	573.000000
	3879990	6130	Grassland-A-High-All	2	0.000000	0.150000	368.000000
	3879990	6210	Grassland-B-Low-All	2	2.668727	0.030000	594.000000
	3879990	6220	Grassland-B-Med-All	2	2.891121	0.070000	488.000000
	3879990	6230	Grassland-B-High-All	2	0.000000	0.150000	368.000000
	3879990	6310	Grassland-C-Low-All	2	18.903486	0.020000	644.000000
	3879990	6320	Grassland-C-Med-All	2	1.334364	0.070000	516.000000
	3879990	6330	Grassland-C-High-All	2	0.000000	0.150000	368.000000
	3879990	6410	Grassland-D-Low-All	2	0.000000	0.040000	580.000000
	3879990	6420	Grassland-D-Med-All	2	0.000000	0.050000	573.000000
	3879990	6430	Grassland-D-High-All	2	0.000000	0.150000	368.000000
	3879990	7110	Pasture-A-Low-All	2	0.000000	0.040000	580.000000
	3879990	7120	Pasture-A-Med-All	2	0.000000	0.050000	573.000000
	3879990	7130	Pasture-A-High-All	2	0.000000	0.150000	368.000000
	3879990	7210	Pasture-B-Low-All	2	17.346728	0.030000	601.000000
	3879990	7220	Pasture-B-Med-All	2	23.796153	0.080000	467.000000
	3879990	7230	Pasture-B-High-All	2	0.000000	0.150000	368.000000
	3879990	7310	Pasture-C-Low-All	2	33.581487	0.020000	644.000000
	3879990	7320	Pasture-C-Med-All	2	2.001546	0.080000	467.000000
	3879990	7330	Pasture-C-High-All	2	0.889576	0.200000	269.000000
	3879990	7410	Pasture-D-Low-All	2	0.000000	0.040000	580.000000
	3879990	7420	Pasture-D-Med-All	2	0.000000	0.050000	573.000000
	3879990	7430	Pasture-D-High-All	2	0.000000	0.150000	368.000000
	3879990	8110	Agriculture-A-Low-All	2	0.000000	0.040000	580.000000
	3879990	8120	Agriculture-A-Med-All	2	0.000000	0.050000	573.000000
	3879990	8130	Agriculture-A-High-All	2	0.000000	0.150000	368.000000
	3879990	8210	Agriculture-B-Low-All	2	1.556758	0.030000	594.000000
	3879990	8220	Agriculture-B-Med-All	2	0.222394	0.060000	573.000000
	3879990	8230	Agriculture-B-High-All	2	0.000000	0.150000	368.000000
	3879990	8310	Agriculture-C-Low-All	2	1.334364	0.020000	651.000000
	3879990	8320	Agriculture-C-Med-All	2	0.000000	0.050000	573.000000
	3879990	8330	Agriculture-C-High-All	2	0.000000	0.150000	368.000000
	3879990	8410	Agriculture-D-Low-All	2	0.000000	0.040000	580.000000
	3879990	8420	Agriculture-D-Med-All	2	0.000000	0.050000	573.000000
	3879990	8430	Agriculture-D-High-All	2	0.000000	0.150000	368.000000
	3879990	9000	Water-All-All-All	2	0.000000	0.040000	580.000000
	3879990	10110	Irrigation-A-Low-All	2	0.000000	0.040000	580.000000
	3879990	10120	Irrigation-A-Med-All	2	0.000000	0.050000	573.000000
	3879990	10130	Irrigation-A-High-All	2	0.000000	0.150000	368.000000
	3879990	10210	Irrigation-B-Low-All	2	0.000000	0.040000	580.000000
	3879990	10220	Irrigation-B-Med-All	2	0.000000	0.050000	573.000000
	3879990	10230	Irrigation-B-High-All	2	0.000000	0.150000	368.000000
	3879990	10310	Irrigation-C-Low-All	2	0.000000	0.040000	580.000000
	3879990	10320	Irrigation-C-Med-All	2	0.000000	0.050000	573.000000
	3879990	10330	Irrigation-C-High-All	2	0.000000	0.150000	368.000000
	3879990	10410	Irrigation-D-Low-All	2	0.000000	0.040000	580.000000
	3879990	10420	Irrigation-D-Med-All	2	0.000000	0.050000	573.000000
	3879990	10430	Irrigation-D-High-All	2	0.000000	0.150000	368.000000
	3879994	1000	Developed_Impervious-All-All-All	1	3.085175	0.090000	453.000000
	3879994	2110	Developed_Pervious-A-Low-All	2	0.000000	0.050000	573.000000
	3879994	2120	Developed_Pervious-A-Med-All	2	0.340555	0.070000	488.000000
	3879994	2130	Developed_Pervious-A-High-All	2	0.000000	0.170000	368.000000
	3879994	2210	Developed_Pervious-B-Low-All	2	2.546216	0.040000	580.000000
	3879994	2220	Developed_Pervious-B-Med-All	2	11.322776	0.080000	460.000000
	3879994	2230	Developed_Pervious-B-High-All	2	0.442421	0.160000	368.000000
	3879994	2310	Developed_Pervious-C-Low-All	2	1.696758	0.030000	601.000000
	3879994	2320	Developed_Pervious-C-Med-All	2	4.514543	0.110000	404.000000
	3879994	2330	Developed_Pervious-C-High-All	2	1.628890	0.200000	262.000000
	3879994	2410	Developed_Pervious-D-Low-All	2	0.000000	0.050000	573.000000
	3879994	2420	Developed_Pervious-D-Med-All	2	0.220365	0.120000	389.000000
	3879994	2430	Developed_Pervious-D-High-All	2	0.000000	0.170000	368.000000
	3879994	3110	Barren-A-Low-All	2	0.000000	0.050000	573.000000
	3879994	3120	Barren-A-Med-All	2	0.000000	0.150000	368.000000
	3879994	3130	Barren-A-High-All	2	0.000000	0.170000	368.000000
	3879994	3210	Barren-B-Low-All	2	0.000000	0.050000	573.000000
	3879994	3220	Barren-B-Med-All	2	0.000000	0.150000	368.000000
	3879994	3230	Barren-B-High-All	2	0.000000	0.170000	368.000000
	3879994	3310	Barren-C-Low-All	2	0.000000	0.050000	573.000000
	3879994	3320	Barren-C-Med-All	2	0.000000	0.150000	368.000000
	3879994	3330	Barren-C-High-All	2	0.000000	0.170000	368.000000
	3879994	3410	Barren-D-Low-All	2	0.000000	0.050000	573.000000
	3879994	3420	Barren-D-Med-All	2	0.222394	0.100000	425.000000
	3879994	3430	Barren-D-High-All	2	0.000000	0.170000	368.000000
	3879994	4110	Forest-A-Low-All	2	7.339000	0.030000	608.000000
	3879994	4120	Forest-A-Med-All	2	4.670273	0.070000	488.000000
	3879994	4130	Forest-A-High-All	2	0.444788	0.160000	368.000000
	3879994	4210	Forest-B-Low-All	2	1.779152	0.040000	587.000000
	3879994	4220	Forest-B-Med-All	2	3.113515	0.100000	432.000000
	3879994	4230	Forest-B-High-All	2	10.007728	0.310000	171.000000
	3879994	4310	Forest-C-Low-All	2	5.337455	0.030000	601.000000
	3879994	4320	Forest-C-Med-All	2	51.817791	0.110000	404.000000
	3879994	4330	Forest-C-High-All	2	251.082774	0.260000	206.000000
	3879994	4410	Forest-D-Low-All	2	0.000000	0.050000	573.000000
	3879994	4420	Forest-D-Med-All	2	1.334364	0.110000	396.000000
	3879994	4430	Forest-D-High-All	2	8.450970	0.320000	164.000000
	3879994	5110	Scrub-A-Low-All	2	3.335909	0.020000	629.000000
	3879994	5120	Scrub-A-Med-All	2	3.335909	0.080000	481.000000
	3879994	5130	Scrub-A-High-All	2	1.334364	0.180000	298.000000
	3879994	5210	Scrub-B-Low-All	2	12.231667	0.030000	601.000000
	3879994	5220	Scrub-B-Med-All	2	57.822428	0.100000	425.000000
	3879994	5230	Scrub-B-High-All	2	42.699639	0.200000	262.000000
	3879994	5310	Scrub-C-Low-All	2	3.335909	0.030000	601.000000
	3879994	5320	Scrub-C-Med-All	2	50.261034	0.110000	404.000000
	3879994	5330	Scrub-C-High-All	2	212.163832	0.250000	213.000000
	3879994	5410	Scrub-D-Low-All	2	0.000000	0.050000	573.000000
	3879994	5420	Scrub-D-Med-All	2	0.444788	0.130000	382.000000
	3879994	5430	Scrub-D-High-All	2	8.895758	0.250000	220.000000
	3879994	6110	Grassland-A-Low-All	2	45.368367	0.020000	636.000000
	3879994	6120	Grassland-A-Med-All	2	5.337455	0.080000	481.000000
	3879994	6130	Grassland-A-High-All	2	0.222394	0.170000	368.000000
	3879994	6210	Grassland-B-Low-All	2	15.789971	0.030000	601.000000
	3879994	6220	Grassland-B-Med-All	2	52.707367	0.100000	432.000000
	3879994	6230	Grassland-B-High-All	2	24.018547	0.200000	269.000000
	3879994	6310	Grassland-C-Low-All	2	48.704276	0.020000	644.000000
	3879994	6320	Grassland-C-Med-All	2	43.811609	0.100000	425.000000
	3879994	6330	Grassland-C-High-All	2	104.080370	0.260000	206.000000
	3879994	6410	Grassland-D-Low-All	2	1.111970	0.020000	629.000000
	3879994	6420	Grassland-D-Med-All	2	4.670273	0.110000	404.000000
	3879994	6430	Grassland-D-High-All	2	30.245578	0.260000	206.000000
	3879994	7110	Pasture-A-Low-All	2	8.895758	0.020000	651.000000
	3879994	7120	Pasture-A-Med-All	2	2.446333	0.080000	467.000000
	3879994	7130	Pasture-A-High-All	2	0.000000	0.170000	368.000000
	3879994	7210	Pasture-B-Low-All	2	25.797699	0.030000	601.000000
	3879994	7220	Pasture-B-Med-All	2	162.125192	0.100000	425.000000
	3879994	7230	Pasture-B-High-All	2	41.810063	0.190000	284.000000
	3879994	7310	Pasture-C-Low-All	2	49.371458	0.020000	651.000000
	3879994	7320	Pasture-C-Med-All	2	32.691911	0.110000	411.000000
	3879994	7330	Pasture-C-High-All	2	42.922033	0.240000	220.000000
	3879994	7410	Pasture-D-Low-All	2	0.000000	0.050000	573.000000
	3879994	7420	Pasture-D-Med-All	2	2.446333	0.120000	396.000000
	3879994	7430	Pasture-D-High-All	2	5.115061	0.270000	199.000000
	3879994	8110	Agriculture-A-Low-All	2	0.189035	0.010000	658.000000
	3879994	8120	Agriculture-A-Med-All	2	0.000000	0.150000	368.000000
	3879994	8130	Agriculture-A-High-All	2	0.000000	0.170000	368.000000
	3879994	8210	Agriculture-B-Low-All	2	1.890349	0.040000	587.000000
	3879994	8220	Agriculture-B-Med-All	2	6.994290	0.090000	439.000000
	3879994	8230	Agriculture-B-High-All	2	0.945174	0.180000	298.000000
	3879994	8310	Agriculture-C-Low-All	2	2.079383	0.030000	608.000000
	3879994	8320	Agriculture-C-Med-All	2	12.287266	0.110000	396.000000
	3879994	8330	Agriculture-C-High-All	2	20.982870	0.200000	262.000000
	3879994	8410	Agriculture-D-Low-All	2	0.000000	0.050000	573.000000
	3879994	8420	Agriculture-D-Med-All	2	0.000000	0.150000	368.000000
	3879994	8430	Agriculture-D-High-All	2	0.000000	0.170000	368.000000
	3879994	9000	Water-All-All-All	2	3.113515	0.040000	573.000000
	3879994	10110	Irrigation-A-Low-All	2	0.033359	0.050000	573.000000
	3879994	10120	Irrigation-A-Med-All	2	0.000000	0.150000	368.000000
	3879994	10130	Irrigation-A-High-All	2	0.000000	0.170000	368.000000
	3879994	10210	Irrigation-B-Low-All	2	0.333591	0.050000	573.000000
	3879994	10220	Irrigation-B-Med-All	2	1.234286	0.150000	368.000000
	3879994	10230	Irrigation-B-High-All	2	0.166795	0.170000	368.000000
	3879994	10310	Irrigation-C-Low-All	2	0.366950	0.050000	573.000000
	3879994	10320	Irrigation-C-Med-All	2	2.168341	0.150000	368.000000
	3879994	10330	Irrigation-C-High-All	2	3.702859	0.170000	368.000000
	3879994	10410	Irrigation-D-Low-All	2	0.000000	0.050000	573.000000
	3879994	10420	Irrigation-D-Med-All	2	0.000000	0.150000	368.000000
	3879994	10430	Irrigation-D-High-All	2	0.000000	0.170000	368.000000
	3880284	1000	Developed_Impervious-All-All-All	1	15.982387	0.130000	368.000000
	3880284	2110	Developed_Pervious-A-Low-All	2	6.688604	0.030000	615.000000
	3880284	2120	Developed_Pervious-A-Med-All	2	10.950569	0.090000	453.000000
	3880284	2130	Developed_Pervious-A-High-All	2	2.323762	0.200000	269.000000
	3880284	2210	Developed_Pervious-B-Low-All	2	12.452162	0.030000	601.000000
	3880284	2220	Developed_Pervious-B-Med-All	2	36.119930	0.090000	439.000000
	3880284	2230	Developed_Pervious-B-High-All	2	55.938528	0.300000	178.000000
	3880284	2310	Developed_Pervious-C-Low-All	2	70.596274	0.030000	608.000000
	3880284	2320	Developed_Pervious-C-Med-All	2	153.737475	0.100000	432.000000
	3880284	2330	Developed_Pervious-C-High-All	2	97.133781	0.210000	255.000000
	3880284	2410	Developed_Pervious-D-Low-All	2	3.113333	0.020000	629.000000
	3880284	2420	Developed_Pervious-D-Med-All	2	2.065203	0.110000	404.000000
	3880284	2430	Developed_Pervious-D-High-All	2	2.371629	0.160000	368.000000
	3880284	3110	Barren-A-Low-All	2	0.000000	0.050000	573.000000
	3880284	3120	Barren-A-Med-All	2	0.000000	0.150000	368.000000
	3880284	3130	Barren-A-High-All	2	0.000000	0.180000	298.000000
	3880284	3210	Barren-B-Low-All	2	0.000000	0.050000	573.000000
	3880284	3220	Barren-B-Med-All	2	0.000000	0.150000	368.000000
	3880284	3230	Barren-B-High-All	2	0.000000	0.180000	298.000000
	3880284	3310	Barren-C-Low-All	2	0.000000	0.050000	573.000000
	3880284	3320	Barren-C-Med-All	2	0.000000	0.150000	368.000000
	3880284	3330	Barren-C-High-All	2	0.000000	0.180000	298.000000
	3880284	3410	Barren-D-Low-All	2	0.000000	0.050000	573.000000
	3880284	3420	Barren-D-Med-All	2	0.000000	0.150000	368.000000
	3880284	3430	Barren-D-High-All	2	0.000000	0.180000	298.000000
	3880284	4110	Forest-A-Low-All	2	12.898849	0.020000	636.000000
	3880284	4120	Forest-A-Med-All	2	4.225485	0.100000	432.000000
	3880284	4130	Forest-A-High-All	2	6.004637	0.250000	220.000000
	3880284	4210	Forest-B-Low-All	2	12.676455	0.030000	601.000000
	3880284	4220	Forest-B-Med-All	2	71.166065	0.110000	411.000000
	3880284	4230	Forest-B-High-All	2	631.821223	0.330000	156.000000
	3880284	4310	Forest-C-Low-All	2	56.265670	0.030000	608.000000
	3880284	4320	Forest-C-Med-All	2	268.207108	0.110000	404.000000
	3880284	4330	Forest-C-High-All	2	983.426063	0.260000	206.000000
	3880284	4410	Forest-D-Low-All	2	0.889576	0.040000	580.000000
	3880284	4420	Forest-D-Med-All	2	1.111970	0.120000	389.000000
	3880284	4430	Forest-D-High-All	2	26.687274	0.340000	156.000000
	3880284	5110	Scrub-A-Low-All	2	3.780697	0.030000	615.000000
	3880284	5120	Scrub-A-Med-All	2	5.559849	0.110000	411.000000
	3880284	5130	Scrub-A-High-All	2	5.559849	0.220000	248.000000
	3880284	5210	Scrub-B-Low-All	2	4.003091	0.030000	615.000000
	3880284	5220	Scrub-B-Med-All	2	17.124334	0.100000	418.000000
	3880284	5230	Scrub-B-High-All	2	22.461789	0.250000	213.000000
	3880284	5310	Scrub-C-Low-All	2	34.026275	0.030000	601.000000
	3880284	5320	Scrub-C-Med-All	2	176.580799	0.110000	411.000000
	3880284	5330	Scrub-C-High-All	2	283.997079	0.230000	234.000000
	3880284	5410	Scrub-D-Low-All	2	1.111970	0.030000	615.000000
	3880284	5420	Scrub-D-Med-All	2	2.446333	0.120000	389.000000
	3880284	5430	Scrub-D-High-All	2	18.681092	0.270000	199.000000
	3880284	6110	Grassland-A-Low-All	2	22.684183	0.020000	636.000000
	3880284	6120	Grassland-A-Med-All	2	4.225485	0.100000	432.000000
	3880284	6130	Grassland-A-High-All	2	1.779152	0.170000	368.000000
	3880284	6210	Grassland-B-Low-All	2	22.684183	0.030000	608.000000
	3880284	6220	Grassland-B-Med-All	2	44.034003	0.090000	439.000000
	3880284	6230	Grassland-B-High-All	2	30.245578	0.230000	234.000000
	3880284	6310	Grassland-C-Low-All	2	120.759917	0.020000	629.000000
	3880284	6320	Grassland-C-Med-All	2	181.251072	0.100000	425.000000
	3880284	6330	Grassland-C-High-All	2	212.163832	0.230000	234.000000
	3880284	6410	Grassland-D-Low-All	2	1.779152	0.030000	594.000000
	3880284	6420	Grassland-D-Med-All	2	7.561394	0.090000	439.000000
	3880284	6430	Grassland-D-High-All	2	11.119698	0.220000	241.000000
	3880284	7110	Pasture-A-Low-All	2	27.132062	0.020000	658.000000
	3880284	7120	Pasture-A-Med-All	2	7.561394	0.090000	446.000000
	3880284	7130	Pasture-A-High-All	2	1.334364	0.190000	284.000000
	3880284	7210	Pasture-B-Low-All	2	53.819337	0.030000	594.000000
	3880284	7220	Pasture-B-Med-All	2	151.895070	0.090000	460.000000
	3880284	7230	Pasture-B-High-All	2	31.135154	0.220000	241.000000
	3880284	7310	Pasture-C-Low-All	2	113.865704	0.020000	622.000000
	3880284	7320	Pasture-C-Med-All	2	187.255709	0.100000	439.000000
	3880284	7330	Pasture-C-High-All	2	206.159195	0.230000	234.000000
	3880284	7410	Pasture-D-Low-All	2	2.446333	0.040000	587.000000
	3880284	7420	Pasture-D-Med-All	2	26.909668	0.100000	439.000000
	3880284	7430	Pasture-D-High-All	2	5.559849	0.220000	248.000000
	3880284	8110	Agriculture-A-Low-All	2	5.671046	0.020000	636.000000
	3880284	8120	Agriculture-A-Med-All	2	0.756139	0.060000	573.000000
	3880284	8130	Agriculture-A-High-All	2	0.000000	0.180000	298.000000
	3880284	8210	Agriculture-B-Low-All	2	19.659626	0.040000	587.000000
	3880284	8220	Agriculture-B-Med-All	2	24.763567	0.080000	467.000000
	3880284	8230	Agriculture-B-High-All	2	5.482011	0.200000	262.000000
	3880284	8310	Agriculture-C-Low-All	2	26.086811	0.030000	608.000000
	3880284	8320	Agriculture-C-Med-All	2	81.663060	0.100000	432.000000
	3880284	8330	Agriculture-C-High-All	2	53.874935	0.210000	255.000000
	3880284	8410	Agriculture-D-Low-All	2	0.000000	0.050000	573.000000
	3880284	8420	Agriculture-D-Med-All	2	0.189035	0.090000	446.000000
	3880284	8430	Agriculture-D-High-All	2	0.378070	0.230000	234.000000
	3880284	9000	Water-All-All-All	2	3.780697	0.070000	516.000000
	3880284	10110	Irrigation-A-Low-All	2	1.000773	0.050000	573.000000
	3880284	10120	Irrigation-A-Med-All	2	0.133436	0.150000	368.000000
	3880284	10130	Irrigation-A-High-All	2	0.000000	0.180000	298.000000
	3880284	10210	Irrigation-B-Low-All	2	3.469346	0.050000	573.000000
	3880284	10220	Irrigation-B-Med-All	2	4.370041	0.150000	368.000000
	3880284	10230	Irrigation-B-High-All	2	0.967414	0.180000	298.000000
	3880284	10310	Irrigation-C-Low-All	2	4.603555	0.050000	573.000000
	3880284	10320	Irrigation-C-Med-All	2	14.411128	0.150000	368.000000
	3880284	10330	Irrigation-C-High-All	2	9.507342	0.180000	298.000000
	3880284	10410	Irrigation-D-Low-All	2	0.000000	0.050000	573.000000
	3880284	10420	Irrigation-D-Med-All	2	0.033359	0.150000	368.000000
	3880284	10430	Irrigation-D-High-All	2	0.066718	0.180000	298.000000
	8889992	1000	Developed_Impervious-All-All-All	1	0.495683	0.070000	516.000000
	8889992	2110	Developed_Pervious-A-Low-All	2	0.000000	0.050000	573.000000
	8889992	2120	Developed_Pervious-A-Med-All	2	0.000000	0.150000	368.000000
	8889992	2130	Developed_Pervious-A-High-All	2	0.000000	0.180000	298.000000
	8889992	2210	Developed_Pervious-B-Low-All	2	2.563847	0.030000	615.000000
	8889992	2220	Developed_Pervious-B-Med-All	2	4.828888	0.080000	460.000000
	8889992	2230	Developed_Pervious-B-High-All	2	0.222165	0.160000	368.000000
	8889992	2310	Developed_Pervious-C-Low-All	2	2.437750	0.020000	629.000000
	8889992	2320	Developed_Pervious-C-Med-All	2	1.019242	0.080000	481.000000
	8889992	2330	Developed_Pervious-C-High-All	2	0.886486	0.200000	269.000000
	8889992	2410	Developed_Pervious-D-Low-All	2	0.000000	0.050000	573.000000
	8889992	2420	Developed_Pervious-D-Med-All	2	0.000000	0.150000	368.000000
	8889992	2430	Developed_Pervious-D-High-All	2	0.000000	0.180000	298.000000
	8889992	3110	Barren-A-Low-All	2	0.000000	0.050000	573.000000
	8889992	3120	Barren-A-Med-All	2	0.000000	0.150000	368.000000
	8889992	3130	Barren-A-High-All	2	0.000000	0.180000	298.000000
	8889992	3210	Barren-B-Low-All	2	0.000000	0.050000	573.000000
	8889992	3220	Barren-B-Med-All	2	0.000000	0.150000	368.000000
	8889992	3230	Barren-B-High-All	2	0.000000	0.180000	298.000000
	8889992	3310	Barren-C-Low-All	2	0.000000	0.050000	573.000000
	8889992	3320	Barren-C-Med-All	2	0.000000	0.150000	368.000000
	8889992	3330	Barren-C-High-All	2	0.000000	0.180000	298.000000
	8889992	3410	Barren-D-Low-All	2	0.000000	0.050000	573.000000
	8889992	3420	Barren-D-Med-All	2	0.000000	0.150000	368.000000
	8889992	3430	Barren-D-High-All	2	0.000000	0.180000	298.000000
	8889992	4110	Forest-A-Low-All	2	0.000000	0.050000	573.000000
	8889992	4120	Forest-A-Med-All	2	0.000000	0.150000	368.000000
	8889992	4130	Forest-A-High-All	2	0.000000	0.180000	298.000000
	8889992	4210	Forest-B-Low-All	2	0.222394	0.050000	573.000000
	8889992	4220	Forest-B-Med-All	2	1.334364	0.110000	411.000000
	8889992	4230	Forest-B-High-All	2	9.118152	0.290000	185.000000
	8889992	4310	Forest-C-Low-All	2	3.335909	0.030000	615.000000
	8889992	4320	Forest-C-Med-All	2	12.898849	0.100000	418.000000
	8889992	4330	Forest-C-High-All	2	83.175339	0.290000	185.000000
	8889992	4410	Forest-D-Low-All	2	0.000000	0.050000	573.000000
	8889992	4420	Forest-D-Med-All	2	0.000000	0.150000	368.000000
	8889992	4430	Forest-D-High-All	2	0.000000	0.180000	298.000000
	8889992	5110	Scrub-A-Low-All	2	0.000000	0.050000	573.000000
	8889992	5120	Scrub-A-Med-All	2	0.000000	0.150000	368.000000
	8889992	5130	Scrub-A-High-All	2	0.000000	0.180000	298.000000
	8889992	5210	Scrub-B-Low-All	2	20.015456	0.030000	601.000000
	8889992	5220	Scrub-B-Med-All	2	52.040185	0.090000	439.000000
	8889992	5230	Scrub-B-High-All	2	34.471063	0.230000	234.000000
	8889992	5310	Scrub-C-Low-All	2	10.897304	0.020000	622.000000
	8889992	5320	Scrub-C-Med-All	2	20.015456	0.090000	439.000000
	8889992	5330	Scrub-C-High-All	2	62.270307	0.280000	185.000000
	8889992	5410	Scrub-D-Low-All	2	0.000000	0.050000	573.000000
	8889992	5420	Scrub-D-Med-All	2	0.000000	0.150000	368.000000
	8889992	5430	Scrub-D-High-All	2	0.000000	0.180000	298.000000
	8889992	6110	Grassland-A-Low-All	2	0.000000	0.050000	573.000000
	8889992	6120	Grassland-A-Med-All	2	0.000000	0.150000	368.000000
	8889992	6130	Grassland-A-High-All	2	0.000000	0.180000	298.000000
	8889992	6210	Grassland-B-Low-All	2	7.339000	0.030000	615.000000
	8889992	6220	Grassland-B-Med-All	2	8.228576	0.080000	467.000000
	8889992	6230	Grassland-B-High-All	2	0.222394	0.200000	269.000000
	8889992	6310	Grassland-C-Low-All	2	7.116607	0.030000	608.000000
	8889992	6320	Grassland-C-Med-All	2	3.558303	0.080000	481.000000
	8889992	6330	Grassland-C-High-All	2	1.779152	0.210000	255.000000
	8889992	6410	Grassland-D-Low-All	2	0.000000	0.050000	573.000000
	8889992	6420	Grassland-D-Med-All	2	0.000000	0.150000	368.000000
	8889992	6430	Grassland-D-High-All	2	0.000000	0.180000	298.000000
	8889992	7110	Pasture-A-Low-All	2	0.000000	0.050000	573.000000
	8889992	7120	Pasture-A-Med-All	2	0.000000	0.150000	368.000000
	8889992	7130	Pasture-A-High-All	2	0.000000	0.180000	298.000000
	8889992	7210	Pasture-B-Low-All	2	1.779152	0.030000	594.000000
	8889992	7220	Pasture-B-Med-All	2	6.004637	0.090000	453.000000
	8889992	7230	Pasture-B-High-All	2	0.444788	0.170000	368.000000
	8889992	7310	Pasture-C-Low-All	2	0.000000	0.050000	573.000000
	8889992	7320	Pasture-C-Med-All	2	1.556758	0.090000	453.000000
	8889992	7330	Pasture-C-High-All	2	0.444788	0.270000	199.000000
	8889992	7410	Pasture-D-Low-All	2	0.000000	0.050000	573.000000
	8889992	7420	Pasture-D-Med-All	2	0.000000	0.150000	368.000000
	8889992	7430	Pasture-D-High-All	2	0.000000	0.180000	298.000000
	8889992	8110	Agriculture-A-Low-All	2	0.000000	0.050000	573.000000
	8889992	8120	Agriculture-A-Med-All	2	0.000000	0.150000	368.000000
	8889992	8130	Agriculture-A-High-All	2	0.000000	0.180000	298.000000
	8889992	8210	Agriculture-B-Low-All	2	0.000000	0.050000	573.000000
	8889992	8220	Agriculture-B-Med-All	2	0.000000	0.150000	368.000000
	8889992	8230	Agriculture-B-High-All	2	0.189035	0.370000	149.000000
	8889992	8310	Agriculture-C-Low-All	2	0.000000	0.050000	573.000000
	8889992	8320	Agriculture-C-Med-All	2	0.000000	0.150000	368.000000
	8889992	8330	Agriculture-C-High-All	2	0.378070	0.360000	149.000000
	8889992	8410	Agriculture-D-Low-All	2	0.000000	0.050000	573.000000
	8889992	8420	Agriculture-D-Med-All	2	0.000000	0.150000	368.000000
	8889992	8430	Agriculture-D-High-All	2	0.000000	0.180000	298.000000
	8889992	9000	Water-All-All-All	2	0.000000	0.180000	298.000000
	8889992	10110	Irrigation-A-Low-All	2	0.000000	0.050000	573.000000
	8889992	10120	Irrigation-A-Med-All	2	0.000000	0.150000	368.000000
	8889992	10130	Irrigation-A-High-All	2	0.000000	0.180000	298.000000
	8889992	10210	Irrigation-B-Low-All	2	0.000000	0.050000	573.000000
	8889992	10220	Irrigation-B-Med-All	2	0.000000	0.150000	368.000000
	8889992	10230	Irrigation-B-High-All	2	0.033359	0.180000	298.000000
	8889992	10310	Irrigation-C-Low-All	2	0.000000	0.050000	573.000000
	8889992	10320	Irrigation-C-Med-All	2	0.000000	0.150000	368.000000
	8889992	10330	Irrigation-C-High-All	2	0.066718	0.180000	298.000000
	8889992	10410	Irrigation-D-Low-All	2	0.000000	0.050000	573.000000
	8889992	10420	Irrigation-D-Med-All	2	0.000000	0.150000	368.000000
	8889992	10430	Irrigation-D-High-All	2	0.000000	0.180000	298.000000
	9999992	1000	Developed_Impervious-All-All-All	1	3.586372	0.080000	481.000000
	9999992	2110	Developed_Pervious-A-Low-All	2	0.000000	0.050000	573.000000
	9999992	2120	Developed_Pervious-A-Med-All	2	0.000000	0.140000	368.000000
	9999992	2130	Developed_Pervious-A-High-All	2	0.000000	0.150000	368.000000
	9999992	2210	Developed_Pervious-B-Low-All	2	4.636204	0.030000	601.000000
	9999992	2220	Developed_Pervious-B-Med-All	2	6.050311	0.100000	425.000000
	9999992	2230	Developed_Pervious-B-High-All	2	2.215844	0.260000	206.000000
	9999992	2310	Developed_Pervious-C-Low-All	2	10.881337	0.020000	636.000000
	9999992	2320	Developed_Pervious-C-Med-All	2	6.524726	0.100000	432.000000
	9999992	2330	Developed_Pervious-C-High-All	2	1.021057	0.220000	241.000000
	9999992	2410	Developed_Pervious-D-Low-All	2	0.000000	0.050000	573.000000
	9999992	2420	Developed_Pervious-D-Med-All	2	0.000000	0.140000	368.000000
	9999992	2430	Developed_Pervious-D-High-All	2	0.000000	0.150000	368.000000
	9999992	3110	Barren-A-Low-All	2	0.000000	0.050000	573.000000
	9999992	3120	Barren-A-Med-All	2	0.000000	0.140000	368.000000
	9999992	3130	Barren-A-High-All	2	0.000000	0.150000	368.000000
	9999992	3210	Barren-B-Low-All	2	0.000000	0.050000	573.000000
	9999992	3220	Barren-B-Med-All	2	0.000000	0.140000	368.000000
	9999992	3230	Barren-B-High-All	2	0.000000	0.150000	368.000000
	9999992	3310	Barren-C-Low-All	2	0.000000	0.050000	573.000000
	9999992	3320	Barren-C-Med-All	2	0.000000	0.140000	368.000000
	9999992	3330	Barren-C-High-All	2	0.000000	0.150000	368.000000
	9999992	3410	Barren-D-Low-All	2	0.000000	0.050000	573.000000
	9999992	3420	Barren-D-Med-All	2	0.000000	0.140000	368.000000
	9999992	3430	Barren-D-High-All	2	0.000000	0.150000	368.000000
	9999992	4110	Forest-A-Low-All	2	0.000000	0.050000	573.000000
	9999992	4120	Forest-A-Med-All	2	0.000000	0.140000	368.000000
	9999992	4130	Forest-A-High-All	2	0.000000	0.150000	368.000000
	9999992	4210	Forest-B-Low-All	2	0.000000	0.050000	573.000000
	9999992	4220	Forest-B-Med-All	2	1.334364	0.090000	453.000000
	9999992	4230	Forest-B-High-All	2	3.335909	0.370000	149.000000
	9999992	4310	Forest-C-Low-All	2	0.000000	0.050000	573.000000
	9999992	4320	Forest-C-Med-All	2	0.667182	0.130000	368.000000
	9999992	4330	Forest-C-High-All	2	9.785334	0.310000	171.000000
	9999992	4410	Forest-D-Low-All	2	0.000000	0.050000	573.000000
	9999992	4420	Forest-D-Med-All	2	0.000000	0.140000	368.000000
	9999992	4430	Forest-D-High-All	2	0.000000	0.150000	368.000000
	9999992	5110	Scrub-A-Low-All	2	0.000000	0.050000	573.000000
	9999992	5120	Scrub-A-Med-All	2	0.000000	0.140000	368.000000
	9999992	5130	Scrub-A-High-All	2	0.000000	0.150000	368.000000
	9999992	5210	Scrub-B-Low-All	2	16.234759	0.030000	608.000000
	9999992	5220	Scrub-B-Med-All	2	29.133608	0.110000	411.000000
	9999992	5230	Scrub-B-High-All	2	22.017001	0.230000	227.000000
	9999992	5310	Scrub-C-Low-All	2	20.237850	0.020000	629.000000
	9999992	5320	Scrub-C-Med-All	2	34.471063	0.110000	411.000000
	9999992	5330	Scrub-C-High-All	2	154.563798	0.250000	213.000000
	9999992	5410	Scrub-D-Low-All	2	0.000000	0.050000	573.000000
	9999992	5420	Scrub-D-Med-All	2	0.000000	0.140000	368.000000
	9999992	5430	Scrub-D-High-All	2	0.000000	0.150000	368.000000
	9999992	6110	Grassland-A-Low-All	2	0.000000	0.050000	573.000000
	9999992	6120	Grassland-A-Med-All	2	0.000000	0.140000	368.000000
	9999992	6130	Grassland-A-High-All	2	0.000000	0.150000	368.000000
	9999992	6210	Grassland-B-Low-All	2	25.575305	0.030000	594.000000
	9999992	6220	Grassland-B-Med-All	2	17.569122	0.080000	474.000000
	9999992	6230	Grassland-B-High-All	2	0.000000	0.150000	368.000000
	9999992	6310	Grassland-C-Low-All	2	34.248669	0.020000	629.000000
	9999992	6320	Grassland-C-Med-All	2	13.121243	0.090000	446.000000
	9999992	6330	Grassland-C-High-All	2	15.122789	0.250000	220.000000
	9999992	6410	Grassland-D-Low-All	2	0.000000	0.050000	573.000000
	9999992	6420	Grassland-D-Med-All	2	0.000000	0.140000	368.000000
	9999992	6430	Grassland-D-High-All	2	0.000000	0.150000	368.000000
	9999992	7110	Pasture-A-Low-All	2	0.000000	0.050000	573.000000
	9999992	7120	Pasture-A-Med-All	2	0.000000	0.140000	368.000000
	9999992	7130	Pasture-A-High-All	2	0.000000	0.150000	368.000000
	9999992	7210	Pasture-B-Low-All	2	35.360639	0.030000	594.000000
	9999992	7220	Pasture-B-Med-All	2	40.030912	0.070000	488.000000
	9999992	7230	Pasture-B-High-All	2	1.111970	0.210000	248.000000
	9999992	7310	Pasture-C-Low-All	2	8.228576	0.020000	622.000000
	9999992	7320	Pasture-C-Med-All	2	18.013910	0.100000	425.000000
	9999992	7330	Pasture-C-High-All	2	22.017001	0.230000	227.000000
	9999992	7410	Pasture-D-Low-All	2	0.000000	0.050000	573.000000
	9999992	7420	Pasture-D-Med-All	2	0.000000	0.140000	368.000000
	9999992	7430	Pasture-D-High-All	2	0.000000	0.150000	368.000000
	9999992	8110	Agriculture-A-Low-All	2	0.000000	0.050000	573.000000
	9999992	8120	Agriculture-A-Med-All	2	0.000000	0.140000	368.000000
	9999992	8130	Agriculture-A-High-All	2	0.000000	0.150000	368.000000
	9999992	8210	Agriculture-B-Low-All	2	1.890349	0.040000	587.000000
	9999992	8220	Agriculture-B-Med-All	2	0.756139	0.070000	488.000000
	9999992	8230	Agriculture-B-High-All	2	0.000000	0.150000	368.000000
	9999992	8310	Agriculture-C-Low-All	2	0.000000	0.050000	573.000000
	9999992	8320	Agriculture-C-Med-All	2	0.189035	0.080000	474.000000
	9999992	8330	Agriculture-C-High-All	2	0.378070	0.230000	234.000000
	9999992	8410	Agriculture-D-Low-All	2	0.000000	0.050000	573.000000
	9999992	8420	Agriculture-D-Med-All	2	0.000000	0.140000	368.000000
	9999992	8430	Agriculture-D-High-All	2	0.000000	0.150000	368.000000
	9999992	9000	Water-All-All-All	2	0.000000	0.140000	368.000000
	9999992	10110	Irrigation-A-Low-All	2	0.000000	0.050000	573.000000
	9999992	10120	Irrigation-A-Med-All	2	0.000000	0.140000	368.000000
	9999992	10130	Irrigation-A-High-All	2	0.000000	0.150000	368.000000
	9999992	10210	Irrigation-B-Low-All	2	0.333591	0.050000	573.000000
	9999992	10220	Irrigation-B-Med-All	2	0.133436	0.140000	368.000000
	9999992	10230	Irrigation-B-High-All	2	0.000000	0.150000	368.000000
	9999992	10310	Irrigation-C-Low-All	2	0.000000	0.050000	573.000000
	9999992	10320	Irrigation-C-Med-All	2	0.033359	0.140000	368.000000
	9999992	10330	Irrigation-C-High-All	2	0.066718	0.150000	368.000000
	9999992	10410	Irrigation-D-Low-All	2	0.000000	0.050000	573.000000
	9999992	10420	Irrigation-D-Med-All	2	0.000000	0.140000	368.000000
	9999992	10430	Irrigation-D-High-All	2	0.000000	0.150000	368.000000
c-----------------------------------------------------------------------------------------
c92  SNOW-FLAGS
c 
c defid     parameter group id
c deluid    landuse id
c iceflag   0 = Ice formation in the snow pack is not simulated
c           1 = Ice formation is simulated
c forest    0.0 - 1.0  Fraction of LAND covered by Forest (winter transpiration)
c fzg       parameter that adjusts for the effect of ice (in the snow pack) on infiltration when iceflag is 1 (/in.)
c fzgl      lower limit of inffac as adjusted by ice in the snow pack when iceflag is 1
c 
c	defid	deluid	iceflag	forest	fzg	fzgl
c--------------------------------------------------------------------------------------------
c93  snow-parm
c 
c defid    parameter group id
c deluid   landuse id
c lat      latitude of the pervious land - ENERGY BALANCE METHOD ONLY (degree)
c          positive for the northern hemisphere, negative for southern
c melev    mean elevation of LAND above sea level - ENERGY BALANCE METHOD ONLY (ft)
c shade    fraction of LAND shaded from solar radiation (i.e. by trees) - ENERGY BALANCE METHOD ONLY
c snowcf   precipitation-to-snow multiplier (accounts for poor gage-catch efficiency during snow)
c covind   maximum snowpack (water equivalent) at which the entire LAND is covered with snow (in)
c 
c	defid	deluid	lat	melev	shade	snowcf	covind
c--------------------------------------------------------------------------------------------
c94  snow-parm2
c 
c defid    parameter group id
c deluid   landuse id
c rdcsn    density of cold, new snow relative to water (For snow falling at temps below freezing.
c          at higher temperatures the density of snow is adjusted)
c tsnow    air temperature below which precipitation will be snow, under saturated conditions (deg F)
c          under non-saturated conditions the temperature is adjusted slightly.
c snoevp   adapts sublimation equation to field conditions - ENERGY BALANCE METHOD ONLY
c ccfact   adapts snow condensation/convection melt equation to field conditions - ENERGY BALANCE METHOD ONLY
c mwater   maximum water content of the snow pack, in depth of water per depth of water.
c mgmelt   maximum rate of snowmelt by ground heat, in depth of water per day (in/day)
c          this is the value which applies when the pack temperature is at the freezing point.
c 
c	defid	deluid	rdcsn	tsnow	snoevp	ccfact	mwater	mgmelt
c--------------------------------------------------------------------------------------------
c96  snow-init
c 
c   defid       parameter group id
c   deluid      landuse id
c   pack-snow   initial quantity of snow in the pack (water equivalent).
c   pack-ice    initial quantity of ice in the pack (water equivalent).
c   pack-watr   initial quantity of liquid water in the pack.
c   rdenpf      density of the frozen contents (snow and ice) of the pack, relative to water.
c   dull        index of the dullness of the snow pack surface, from which albedo is estimated - ENERGY BALANCE METHOD ONLY
c   paktmp      mean temperature of the frozen contents of the snow pack.
c   covinx      current snow pack depth (water equivalent) required to obtain complete areal coverage of LAND.
c               if the pack is less than this amount, areal coverage is prorated (PACKF/COVINX).
c   xlnmlt      current remaining possible increment to ice storage in the pack.
c               relevant when Ice formation is simulated (iceflag = 1)
c   skyclr      fraction of sky which is assumed to be clear at the present time.
c
c	defid	deluid	pack-snow	pack-ice	pack-watr	rdenpf	dull	paktmp	covinx	xlnmlt	skyclr
c--------------------------------------------------------------------------------------------
c100 pwat-parm1
c    pervious and impervious land hydrology control
c
c    (value of 0 = use constant pwat-parm4; 1 = use corresponding monthly variable card)
c
c    vcsfg    interception storage capacity     (card 150)
c    vuzfg    upper zone nominal storage      (card 160)
c    vnnfg    manning's n for the overland flow plane  (card 170)
c    vifwfg   interflow inflow parameter      (card 180)
c    vircfg   interflow recession constant     (card 190)
c    vlefg    lower zone evapotranspiration (e-t) parameter (card 200)
c
c	vcsfg	vuzfg	vnnfg	vifwfg	vircfg	vlefg
	0	1	0	1	1	1
c-----------------------------------------------------------------------------------------
c110 pwat-parm2
c
c    defid   parameter group id
c    deluid  landuse id
c    lzsn    lower zone nominal soil moisture storage (inches)
c    infilt  infiltration capacity of the soil (in/hr)
c    kvary   variable groundwater recession (1/inches)
c    agwrc   base groundwater recession (none)
c
c	defid	deluid	lzsn	infilt	kvary	agwrc
	1	1000	0.000000	0.000000	0.000000	0.000000
	1	2110	12.219710	0.312500	0.000000	0.969000
	1	2120	12.219710	0.312500	0.000000	0.969000
	1	2130	12.219710	0.312500	0.000000	0.969000
	1	2210	15.002270	0.034553	0.000000	0.969000
	1	2220	15.002270	0.034553	0.000000	0.969000
	1	2230	15.002270	0.034553	0.000000	0.969000
	1	2310	16.500000	0.017278	0.000000	0.969000
	1	2320	16.500000	0.017278	0.000000	0.969000
	1	2330	16.500000	0.017278	0.000000	0.969000
	1	2410	16.500000	0.002365	0.000000	0.969000
	1	2420	16.500000	0.002365	0.000000	0.969000
	1	2430	16.500000	0.002365	0.000000	0.969000
	1	3110	12.219710	0.312500	0.000000	0.969000
	1	3120	12.219710	0.312500	0.000000	0.969000
	1	3130	12.219710	0.312500	0.000000	0.969000
	1	3210	15.002270	0.034553	0.000000	0.969000
	1	3220	15.002270	0.034553	0.000000	0.969000
	1	3230	15.002270	0.034553	0.000000	0.969000
	1	3310	16.500000	0.017278	0.000000	0.969000
	1	3320	16.500000	0.017278	0.000000	0.969000
	1	3330	16.500000	0.017278	0.000000	0.969000
	1	3410	16.500000	0.002365	0.000000	0.969000
	1	3420	16.500000	0.002365	0.000000	0.969000
	1	3430	16.500000	0.002365	0.000000	0.969000
	1	4110	12.219710	0.312500	0.000000	0.969000
	1	4120	12.219710	0.312500	0.000000	0.969000
	1	4130	12.219710	0.312500	0.000000	0.969000
	1	4210	15.002270	0.034553	0.000000	0.969000
	1	4220	15.002270	0.034553	0.000000	0.969000
	1	4230	15.002270	0.034553	0.000000	0.969000
	1	4310	16.500000	0.017278	0.000000	0.969000
	1	4320	16.500000	0.017278	0.000000	0.969000
	1	4330	16.500000	0.017278	0.000000	0.969000
	1	4410	16.500000	0.002365	0.000000	0.969000
	1	4420	16.500000	0.002365	0.000000	0.969000
	1	4430	16.500000	0.002365	0.000000	0.969000
	1	5110	12.219710	0.312500	0.000000	0.969000
	1	5120	12.219710	0.312500	0.000000	0.969000
	1	5130	12.219710	0.312500	0.000000	0.969000
	1	5210	15.002270	0.034553	0.000000	0.969000
	1	5220	15.002270	0.034553	0.000000	0.969000
	1	5230	15.002270	0.034553	0.000000	0.969000
	1	5310	16.500000	0.017278	0.000000	0.969000
	1	5320	16.500000	0.017278	0.000000	0.969000
	1	5330	16.500000	0.017278	0.000000	0.969000
	1	5410	16.500000	0.002365	0.000000	0.969000
	1	5420	16.500000	0.002365	0.000000	0.969000
	1	5430	16.500000	0.002365	0.000000	0.969000
	1	6110	12.219710	0.312500	0.000000	0.969000
	1	6120	12.219710	0.312500	0.000000	0.969000
	1	6130	12.219710	0.312500	0.000000	0.969000
	1	6210	15.002270	0.034553	0.000000	0.969000
	1	6220	15.002270	0.034553	0.000000	0.969000
	1	6230	15.002270	0.034553	0.000000	0.969000
	1	6310	16.500000	0.017278	0.000000	0.969000
	1	6320	16.500000	0.017278	0.000000	0.969000
	1	6330	16.500000	0.017278	0.000000	0.969000
	1	6410	16.500000	0.002365	0.000000	0.969000
	1	6420	16.500000	0.002365	0.000000	0.969000
	1	6430	16.500000	0.002365	0.000000	0.969000
	1	7110	12.219710	0.312500	0.000000	0.969000
	1	7120	12.219710	0.312500	0.000000	0.969000
	1	7130	12.219710	0.312500	0.000000	0.969000
	1	7210	15.002270	0.034553	0.000000	0.969000
	1	7220	15.002270	0.034553	0.000000	0.969000
	1	7230	15.002270	0.034553	0.000000	0.969000
	1	7310	16.500000	0.017278	0.000000	0.969000
	1	7320	16.500000	0.017278	0.000000	0.969000
	1	7330	16.500000	0.017278	0.000000	0.969000
	1	7410	16.500000	0.002365	0.000000	0.969000
	1	7420	16.500000	0.002365	0.000000	0.969000
	1	7430	16.500000	0.002365	0.000000	0.969000
	1	8110	12.219710	0.312500	0.000000	0.969000
	1	8120	12.219710	0.312500	0.000000	0.969000
	1	8130	12.219710	0.312500	0.000000	0.969000
	1	8210	15.002270	0.034553	0.000000	0.969000
	1	8220	15.002270	0.034553	0.000000	0.969000
	1	8230	15.002270	0.034553	0.000000	0.969000
	1	8310	16.500000	0.017278	0.000000	0.969000
	1	8320	16.500000	0.017278	0.000000	0.969000
	1	8330	16.500000	0.017278	0.000000	0.969000
	1	8410	16.500000	0.002365	0.000000	0.969000
	1	8420	16.500000	0.002365	0.000000	0.969000
	1	8430	16.500000	0.002365	0.000000	0.969000
	1	9000	10.800000	0.000000	0.000000	0.969000
	1	10110	12.219710	0.312500	0.000000	0.969000
	1	10120	12.219710	0.312500	0.000000	0.969000
	1	10130	12.219710	0.312500	0.000000	0.969000
	1	10210	15.002270	0.034553	0.000000	0.969000
	1	10220	15.002270	0.034553	0.000000	0.969000
	1	10230	15.002270	0.034553	0.000000	0.969000
	1	10310	16.500000	0.017278	0.000000	0.969000
	1	10320	16.500000	0.017278	0.000000	0.969000
	1	10330	16.500000	0.017278	0.000000	0.969000
	1	10410	16.500000	0.002365	0.000000	0.969000
	1	10420	16.500000	0.002365	0.000000	0.969000
	1	10430	16.500000	0.002365	0.000000	0.969000
c-----------------------------------------------------------------------------------------
c120 pwat-parm3
c
c    defid   parameter group id
c    deluid  landuse id
c    petmax  air temperature below which e-t will is reduced (deg F)
c    petmin  air temperature below which e-t is set to zero (deg F)
c    infexp  exponent in the infiltration equation (none)
c    infild  ratio between the maximum and mean infiltration capacities over the pervious land (none)
c    deepfr  fraction of groundwater inflow that will enter deep groundwater (none)
c    basetp  fraction of remaining potential e-t that can be satisfied from baseflow (none)
c    agwetp  fraction of remaining potential e-t that can be satisfied from active groundwater (none)
c
c	defid	deluid	petmax	petmin	infexp	infild	deepfr	basetp	agwetp
	1	1000	45.000000	35.000000	2.000000	2.000000	0.000000	0.000000	0.000000
	1	2110	45.000000	35.000000	2.000000	2.000000	0.290000	0.000000	0.000000
	1	2120	45.000000	35.000000	2.000000	2.000000	0.290000	0.000000	0.000000
	1	2130	45.000000	35.000000	2.000000	2.000000	0.290000	0.000000	0.000000
	1	2210	45.000000	35.000000	2.000000	2.000000	0.290000	0.000000	0.000000
	1	2220	45.000000	35.000000	2.000000	2.000000	0.290000	0.000000	0.000000
	1	2230	45.000000	35.000000	2.000000	2.000000	0.290000	0.000000	0.000000
	1	2310	45.000000	35.000000	2.000000	2.000000	0.290000	0.000000	0.000000
	1	2320	45.000000	35.000000	2.000000	2.000000	0.290000	0.000000	0.000000
	1	2330	45.000000	35.000000	2.000000	2.000000	0.290000	0.000000	0.000000
	1	2410	45.000000	35.000000	2.000000	2.000000	0.290000	0.000000	0.000000
	1	2420	45.000000	35.000000	2.000000	2.000000	0.290000	0.000000	0.000000
	1	2430	45.000000	35.000000	2.000000	2.000000	0.290000	0.000000	0.000000
	1	3110	45.000000	35.000000	2.000000	2.000000	0.290000	0.000000	0.000000
	1	3120	45.000000	35.000000	2.000000	2.000000	0.290000	0.000000	0.000000
	1	3130	45.000000	35.000000	2.000000	2.000000	0.290000	0.000000	0.000000
	1	3210	45.000000	35.000000	2.000000	2.000000	0.290000	0.000000	0.000000
	1	3220	45.000000	35.000000	2.000000	2.000000	0.290000	0.000000	0.000000
	1	3230	45.000000	35.000000	2.000000	2.000000	0.290000	0.000000	0.000000
	1	3310	45.000000	35.000000	2.000000	2.000000	0.290000	0.000000	0.000000
	1	3320	45.000000	35.000000	2.000000	2.000000	0.290000	0.000000	0.000000
	1	3330	45.000000	35.000000	2.000000	2.000000	0.290000	0.000000	0.000000
	1	3410	45.000000	35.000000	2.000000	2.000000	0.290000	0.000000	0.000000
	1	3420	45.000000	35.000000	2.000000	2.000000	0.290000	0.000000	0.000000
	1	3430	45.000000	35.000000	2.000000	2.000000	0.290000	0.000000	0.000000
	1	4110	45.000000	35.000000	2.000000	2.000000	0.290000	0.035000	0.000000
	1	4120	45.000000	35.000000	2.000000	2.000000	0.290000	0.035000	0.000000
	1	4130	45.000000	35.000000	2.000000	2.000000	0.290000	0.035000	0.000000
	1	4210	45.000000	35.000000	2.000000	2.000000	0.290000	0.035000	0.000000
	1	4220	45.000000	35.000000	2.000000	2.000000	0.290000	0.035000	0.000000
	1	4230	45.000000	35.000000	2.000000	2.000000	0.290000	0.035000	0.000000
	1	4310	45.000000	35.000000	2.000000	2.000000	0.290000	0.035000	0.000000
	1	4320	45.000000	35.000000	2.000000	2.000000	0.290000	0.035000	0.000000
	1	4330	45.000000	35.000000	2.000000	2.000000	0.290000	0.035000	0.000000
	1	4410	45.000000	35.000000	2.000000	2.000000	0.290000	0.035000	0.000000
	1	4420	45.000000	35.000000	2.000000	2.000000	0.290000	0.035000	0.000000
	1	4430	45.000000	35.000000	2.000000	2.000000	0.290000	0.035000	0.000000
	1	5110	45.000000	35.000000	2.000000	2.000000	0.290000	0.035000	0.200000
	1	5120	45.000000	35.000000	2.000000	2.000000	0.290000	0.035000	0.200000
	1	5130	45.000000	35.000000	2.000000	2.000000	0.290000	0.035000	0.200000
	1	5210	45.000000	35.000000	2.000000	2.000000	0.290000	0.035000	0.200000
	1	5220	45.000000	35.000000	2.000000	2.000000	0.290000	0.035000	0.200000
	1	5230	45.000000	35.000000	2.000000	2.000000	0.290000	0.035000	0.200000
	1	5310	45.000000	35.000000	2.000000	2.000000	0.290000	0.035000	0.200000
	1	5320	45.000000	35.000000	2.000000	2.000000	0.290000	0.035000	0.200000
	1	5330	45.000000	35.000000	2.000000	2.000000	0.290000	0.035000	0.200000
	1	5410	45.000000	35.000000	2.000000	2.000000	0.290000	0.035000	0.200000
	1	5420	45.000000	35.000000	2.000000	2.000000	0.290000	0.035000	0.200000
	1	5430	45.000000	35.000000	2.000000	2.000000	0.290000	0.035000	0.200000
	1	6110	45.000000	35.000000	2.000000	2.000000	0.290000	0.035000	0.000000
	1	6120	45.000000	35.000000	2.000000	2.000000	0.290000	0.035000	0.000000
	1	6130	45.000000	35.000000	2.000000	2.000000	0.290000	0.035000	0.000000
	1	6210	45.000000	35.000000	2.000000	2.000000	0.290000	0.035000	0.000000
	1	6220	45.000000	35.000000	2.000000	2.000000	0.290000	0.035000	0.000000
	1	6230	45.000000	35.000000	2.000000	2.000000	0.290000	0.035000	0.000000
	1	6310	45.000000	35.000000	2.000000	2.000000	0.290000	0.035000	0.000000
	1	6320	45.000000	35.000000	2.000000	2.000000	0.290000	0.035000	0.000000
	1	6330	45.000000	35.000000	2.000000	2.000000	0.290000	0.035000	0.000000
	1	6410	45.000000	35.000000	2.000000	2.000000	0.290000	0.035000	0.000000
	1	6420	45.000000	35.000000	2.000000	2.000000	0.290000	0.035000	0.000000
	1	6430	45.000000	35.000000	2.000000	2.000000	0.290000	0.035000	0.000000
	1	7110	45.000000	35.000000	2.000000	2.000000	0.290000	0.035000	0.000000
	1	7120	45.000000	35.000000	2.000000	2.000000	0.290000	0.035000	0.000000
	1	7130	45.000000	35.000000	2.000000	2.000000	0.290000	0.035000	0.000000
	1	7210	45.000000	35.000000	2.000000	2.000000	0.290000	0.035000	0.000000
	1	7220	45.000000	35.000000	2.000000	2.000000	0.290000	0.035000	0.000000
	1	7230	45.000000	35.000000	2.000000	2.000000	0.290000	0.035000	0.000000
	1	7310	45.000000	35.000000	2.000000	2.000000	0.290000	0.035000	0.000000
	1	7320	45.000000	35.000000	2.000000	2.000000	0.290000	0.035000	0.000000
	1	7330	45.000000	35.000000	2.000000	2.000000	0.290000	0.035000	0.000000
	1	7410	45.000000	35.000000	2.000000	2.000000	0.290000	0.035000	0.000000
	1	7420	45.000000	35.000000	2.000000	2.000000	0.290000	0.035000	0.000000
	1	7430	45.000000	35.000000	2.000000	2.000000	0.290000	0.035000	0.000000
	1	8110	45.000000	35.000000	2.000000	2.000000	0.290000	0.000000	0.000000
	1	8120	45.000000	35.000000	2.000000	2.000000	0.290000	0.000000	0.000000
	1	8130	45.000000	35.000000	2.000000	2.000000	0.290000	0.000000	0.000000
	1	8210	45.000000	35.000000	2.000000	2.000000	0.290000	0.000000	0.000000
	1	8220	45.000000	35.000000	2.000000	2.000000	0.290000	0.000000	0.000000
	1	8230	45.000000	35.000000	2.000000	2.000000	0.290000	0.000000	0.000000
	1	8310	45.000000	35.000000	2.000000	2.000000	0.290000	0.000000	0.000000
	1	8320	45.000000	35.000000	2.000000	2.000000	0.290000	0.000000	0.000000
	1	8330	45.000000	35.000000	2.000000	2.000000	0.290000	0.000000	0.000000
	1	8410	45.000000	35.000000	2.000000	2.000000	0.290000	0.000000	0.000000
	1	8420	45.000000	35.000000	2.000000	2.000000	0.290000	0.000000	0.000000
	1	8430	45.000000	35.000000	2.000000	2.000000	0.290000	0.000000	0.000000
	1	9000	45.000000	35.000000	2.000000	2.000000	0.290000	0.000000	0.000000
	1	10110	45.000000	35.000000	2.000000	2.000000	0.290000	0.000000	0.000000
	1	10120	45.000000	35.000000	2.000000	2.000000	0.290000	0.000000	0.000000
	1	10130	45.000000	35.000000	2.000000	2.000000	0.290000	0.000000	0.000000
	1	10210	45.000000	35.000000	2.000000	2.000000	0.290000	0.000000	0.000000
	1	10220	45.000000	35.000000	2.000000	2.000000	0.290000	0.000000	0.000000
	1	10230	45.000000	35.000000	2.000000	2.000000	0.290000	0.000000	0.000000
	1	10310	45.000000	35.000000	2.000000	2.000000	0.290000	0.000000	0.000000
	1	10320	45.000000	35.000000	2.000000	2.000000	0.290000	0.000000	0.000000
	1	10330	45.000000	35.000000	2.000000	2.000000	0.290000	0.000000	0.000000
	1	10410	45.000000	35.000000	2.000000	2.000000	0.290000	0.000000	0.000000
	1	10420	45.000000	35.000000	2.000000	2.000000	0.290000	0.000000	0.000000
	1	10430	45.000000	35.000000	2.000000	2.000000	0.290000	0.000000	0.000000
c-----------------------------------------------------------------------------------------
c130 pwat-parm4
c
c    defid   parameter group id
c    deluid  landuse id
c    cepsc   interception storage capacity (inches)
c    uzsn    upper zone nominal storage (inches)
c    nsur    Manning's n for the assumed overland flow plane (none)
c    intfw   interflow inflow parameter (none)
c    irc     interflow recession parameter (none)
c    lzetp   lower zone e-t parameter (none)
c
c	defid	deluid	cepsc	uzsn	nsur	intfw	irc	lzetp
	1	1000	0.249372	0.900000	0.050000	0.000000	0.000000	0.781250
	1	2110	0.382813	1.814669	0.075000	2.000000	0.600000	0.781250
	1	2120	0.382813	1.036954	0.075000	2.000000	0.600000	0.781250
	1	2130	0.382813	0.777715	0.075000	2.000000	0.600000	0.781250
	1	2210	0.382813	2.735203	0.075000	2.000000	0.600000	0.781250
	1	2220	0.382813	1.562974	0.075000	2.000000	0.600000	0.781250
	1	2230	0.382813	1.172230	0.075000	2.000000	0.600000	0.781250
	1	2310	0.382813	3.150000	0.075000	2.000000	0.600000	0.781250
	1	2320	0.382813	2.250000	0.075000	2.000000	0.600000	0.781250
	1	2330	0.382813	1.687500	0.075000	2.000000	0.600000	0.781250
	1	2410	0.382813	3.150000	0.075000	2.000000	0.600000	0.781250
	1	2420	0.382813	2.250000	0.075000	2.000000	0.600000	0.781250
	1	2430	0.382813	1.687500	0.075000	2.000000	0.600000	0.781250
	1	3110	0.273438	1.814669	0.100000	2.000000	0.600000	0.625000
	1	3120	0.273438	1.036954	0.100000	2.000000	0.600000	0.625000
	1	3130	0.273438	0.777715	0.100000	2.000000	0.600000	0.625000
	1	3210	0.273438	2.735203	0.100000	2.000000	0.600000	0.625000
	1	3220	0.273438	1.562974	0.100000	2.000000	0.600000	0.625000
	1	3230	0.273438	1.172230	0.100000	2.000000	0.600000	0.625000
	1	3310	0.273438	3.150000	0.100000	2.000000	0.600000	0.625000
	1	3320	0.273438	2.250000	0.100000	2.000000	0.600000	0.625000
	1	3330	0.273438	1.687500	0.100000	2.000000	0.600000	0.625000
	1	3410	0.273438	3.150000	0.100000	2.000000	0.600000	0.625000
	1	3420	0.273438	2.250000	0.100000	2.000000	0.600000	0.625000
	1	3430	0.273438	1.687500	0.100000	2.000000	0.600000	0.625000
	1	4110	0.400000	1.814669	0.150000	2.000000	0.600000	0.937500
	1	4120	0.400000	1.036954	0.150000	2.000000	0.600000	0.937500
	1	4130	0.400000	0.777715	0.150000	2.000000	0.600000	0.937500
	1	4210	0.400000	2.735203	0.150000	2.000000	0.600000	0.937500
	1	4220	0.400000	1.562974	0.150000	2.000000	0.600000	0.937500
	1	4230	0.400000	1.172230	0.150000	2.000000	0.600000	0.937500
	1	4310	0.400000	3.150000	0.150000	2.000000	0.600000	0.937500
	1	4320	0.400000	2.250000	0.150000	2.000000	0.600000	0.937500
	1	4330	0.400000	1.687500	0.150000	2.000000	0.600000	0.937500
	1	4410	0.400000	3.150000	0.150000	2.000000	0.600000	0.937500
	1	4420	0.400000	2.250000	0.150000	2.000000	0.600000	0.937500
	1	4430	0.400000	1.687500	0.150000	2.000000	0.600000	0.937500
	1	5110	0.360000	1.814669	0.100000	2.000000	0.600000	0.625000
	1	5120	0.360000	1.036954	0.100000	2.000000	0.600000	0.625000
	1	5130	0.360000	0.777715	0.100000	2.000000	0.600000	0.625000
	1	5210	0.360000	2.735203	0.100000	2.000000	0.600000	0.625000
	1	5220	0.360000	1.562974	0.100000	2.000000	0.600000	0.625000
	1	5230	0.360000	1.172230	0.100000	2.000000	0.600000	0.625000
	1	5310	0.360000	3.150000	0.100000	2.000000	0.600000	0.625000
	1	5320	0.360000	2.250000	0.100000	2.000000	0.600000	0.625000
	1	5330	0.360000	1.687500	0.100000	2.000000	0.600000	0.625000
	1	5410	0.360000	3.150000	0.100000	2.000000	0.600000	0.625000
	1	5420	0.360000	2.250000	0.100000	2.000000	0.600000	0.625000
	1	5430	0.360000	1.687500	0.100000	2.000000	0.600000	0.625000
	1	6110	0.340000	1.814669	0.100000	2.000000	0.600000	0.625000
	1	6120	0.340000	1.036954	0.100000	2.000000	0.600000	0.625000
	1	6130	0.340000	0.777715	0.100000	2.000000	0.600000	0.625000
	1	6210	0.340000	2.735203	0.100000	2.000000	0.600000	0.625000
	1	6220	0.340000	1.562974	0.100000	2.000000	0.600000	0.625000
	1	6230	0.340000	1.172230	0.100000	2.000000	0.600000	0.625000
	1	6310	0.340000	3.150000	0.100000	2.000000	0.600000	0.625000
	1	6320	0.340000	2.250000	0.100000	2.000000	0.600000	0.625000
	1	6330	0.340000	1.687500	0.100000	2.000000	0.600000	0.625000
	1	6410	0.340000	3.150000	0.100000	2.000000	0.600000	0.625000
	1	6420	0.340000	2.250000	0.100000	2.000000	0.600000	0.625000
	1	6430	0.340000	1.687500	0.100000	2.000000	0.600000	0.625000
	1	7110	0.340000	1.814669	0.100000	2.000000	0.600000	0.781250
	1	7120	0.340000	1.036954	0.100000	2.000000	0.600000	0.781250
	1	7130	0.340000	0.777715	0.100000	2.000000	0.600000	0.781250
	1	7210	0.340000	2.735203	0.100000	2.000000	0.600000	0.781250
	1	7220	0.340000	1.562974	0.100000	2.000000	0.600000	0.781250
	1	7230	0.340000	1.172230	0.100000	2.000000	0.600000	0.781250
	1	7310	0.340000	3.150000	0.100000	2.000000	0.600000	0.781250
	1	7320	0.340000	2.250000	0.100000	2.000000	0.600000	0.781250
	1	7330	0.340000	1.687500	0.100000	2.000000	0.600000	0.781250
	1	7410	0.340000	3.150000	0.100000	2.000000	0.600000	0.781250
	1	7420	0.340000	2.250000	0.100000	2.000000	0.600000	0.781250
	1	7430	0.340000	1.687500	0.100000	2.000000	0.600000	0.781250
	1	8110	0.340000	1.814669	0.100000	2.000000	0.600000	0.781250
	1	8120	0.340000	1.036954	0.100000	2.000000	0.600000	0.781250
	1	8130	0.340000	0.777715	0.100000	2.000000	0.600000	0.781250
	1	8210	0.340000	2.735203	0.100000	2.000000	0.600000	0.781250
	1	8220	0.340000	1.562974	0.100000	2.000000	0.600000	0.781250
	1	8230	0.340000	1.172230	0.100000	2.000000	0.600000	0.781250
	1	8310	0.340000	3.150000	0.100000	2.000000	0.600000	0.781250
	1	8320	0.340000	2.250000	0.100000	2.000000	0.600000	0.781250
	1	8330	0.340000	1.687500	0.100000	2.000000	0.600000	0.781250
	1	8410	0.340000	3.150000	0.100000	2.000000	0.600000	0.781250
	1	8420	0.340000	2.250000	0.100000	2.000000	0.600000	0.781250
	1	8430	0.340000	1.687500	0.100000	2.000000	0.600000	0.781250
	1	9000	0.000000	0.900000	0.225000	2.000000	0.600000	0.781250
	1	10110	0.340000	1.814669	0.100000	2.000000	0.600000	0.781250
	1	10120	0.340000	1.036954	0.100000	2.000000	0.600000	0.781250
	1	10130	0.340000	0.777715	0.100000	2.000000	0.600000	0.781250
	1	10210	0.340000	2.735203	0.100000	2.000000	0.600000	0.781250
	1	10220	0.340000	1.562974	0.100000	2.000000	0.600000	0.781250
	1	10230	0.340000	1.172230	0.100000	2.000000	0.600000	0.781250
	1	10310	0.340000	3.150000	0.100000	2.000000	0.600000	0.781250
	1	10320	0.340000	2.250000	0.100000	2.000000	0.600000	0.781250
	1	10330	0.340000	1.687500	0.100000	2.000000	0.600000	0.781250
	1	10410	0.340000	3.150000	0.100000	2.000000	0.600000	0.781250
	1	10420	0.340000	2.250000	0.100000	2.000000	0.600000	0.781250
	1	10430	0.340000	1.687500	0.100000	2.000000	0.600000	0.781250
c----------------------------------------------------------------------------------------
c140 pwat-state1
c    initial conditions for the simulation
c
c    defid   parameter group id
c    deluid  landuse id
c    ceps    initial interception storage.
c    surs    initial surface (overland flow) storage.
c    uzs     initial upper zone storage.
c    ifws    initial interflow storage.
c    lzs     initial lower zone storage.
c    agws    initial active groundwater storage.
c    gwvs    initial index to groundwater slope.
c
c	defid	deluid	ceps	surs	uzs	ifws	lzs	agws	gwvs
	1	1000	0.000000	0.000000	0.400000	0.000000	9.000000	2.000000	0.500000
	1	2110	0.000000	0.000000	0.400000	0.000000	9.000000	2.000000	0.500000
	1	2120	0.000000	0.000000	0.400000	0.000000	9.000000	2.000000	0.500000
	1	2130	0.000000	0.000000	0.400000	0.000000	9.000000	2.000000	0.500000
	1	2210	0.000000	0.000000	0.400000	0.000000	9.000000	2.000000	0.500000
	1	2220	0.000000	0.000000	0.400000	0.000000	9.000000	2.000000	0.500000
	1	2230	0.000000	0.000000	0.400000	0.000000	9.000000	2.000000	0.500000
	1	2310	0.000000	0.000000	0.400000	0.000000	9.000000	2.000000	0.500000
	1	2320	0.000000	0.000000	0.400000	0.000000	9.000000	2.000000	0.500000
	1	2330	0.000000	0.000000	0.400000	0.000000	9.000000	2.000000	0.500000
	1	2410	0.000000	0.000000	0.400000	0.000000	9.000000	2.000000	0.500000
	1	2420	0.000000	0.000000	0.400000	0.000000	9.000000	2.000000	0.500000
	1	2430	0.000000	0.000000	0.400000	0.000000	9.000000	2.000000	0.500000
	1	3110	0.000000	0.000000	0.400000	0.000000	9.000000	2.000000	0.500000
	1	3120	0.000000	0.000000	0.400000	0.000000	9.000000	2.000000	0.500000
	1	3130	0.000000	0.000000	0.400000	0.000000	9.000000	2.000000	0.500000
	1	3210	0.000000	0.000000	0.400000	0.000000	9.000000	2.000000	0.500000
	1	3220	0.000000	0.000000	0.400000	0.000000	9.000000	2.000000	0.500000
	1	3230	0.000000	0.000000	0.400000	0.000000	9.000000	2.000000	0.500000
	1	3310	0.000000	0.000000	0.400000	0.000000	9.000000	2.000000	0.500000
	1	3320	0.000000	0.000000	0.400000	0.000000	9.000000	2.000000	0.500000
	1	3330	0.000000	0.000000	0.400000	0.000000	9.000000	2.000000	0.500000
	1	3410	0.000000	0.000000	0.400000	0.000000	9.000000	2.000000	0.500000
	1	3420	0.000000	0.000000	0.400000	0.000000	9.000000	2.000000	0.500000
	1	3430	0.000000	0.000000	0.400000	0.000000	9.000000	2.000000	0.500000
	1	4110	0.000000	0.000000	0.400000	0.000000	9.000000	2.000000	0.500000
	1	4120	0.000000	0.000000	0.400000	0.000000	9.000000	2.000000	0.500000
	1	4130	0.000000	0.000000	0.400000	0.000000	9.000000	2.000000	0.500000
	1	4210	0.000000	0.000000	0.400000	0.000000	9.000000	2.000000	0.500000
	1	4220	0.000000	0.000000	0.400000	0.000000	9.000000	2.000000	0.500000
	1	4230	0.000000	0.000000	0.400000	0.000000	9.000000	2.000000	0.500000
	1	4310	0.000000	0.000000	0.400000	0.000000	9.000000	2.000000	0.500000
	1	4320	0.000000	0.000000	0.400000	0.000000	9.000000	2.000000	0.500000
	1	4330	0.000000	0.000000	0.400000	0.000000	9.000000	2.000000	0.500000
	1	4410	0.000000	0.000000	0.400000	0.000000	9.000000	2.000000	0.500000
	1	4420	0.000000	0.000000	0.400000	0.000000	9.000000	2.000000	0.500000
	1	4430	0.000000	0.000000	0.400000	0.000000	9.000000	2.000000	0.500000
	1	5110	0.000000	0.000000	0.400000	0.000000	9.000000	2.000000	0.500000
	1	5120	0.000000	0.000000	0.400000	0.000000	9.000000	2.000000	0.500000
	1	5130	0.000000	0.000000	0.400000	0.000000	9.000000	2.000000	0.500000
	1	5210	0.000000	0.000000	0.400000	0.000000	9.000000	2.000000	0.500000
	1	5220	0.000000	0.000000	0.400000	0.000000	9.000000	2.000000	0.500000
	1	5230	0.000000	0.000000	0.400000	0.000000	9.000000	2.000000	0.500000
	1	5310	0.000000	0.000000	0.400000	0.000000	9.000000	2.000000	0.500000
	1	5320	0.000000	0.000000	0.400000	0.000000	9.000000	2.000000	0.500000
	1	5330	0.000000	0.000000	0.400000	0.000000	9.000000	2.000000	0.500000
	1	5410	0.000000	0.000000	0.400000	0.000000	9.000000	2.000000	0.500000
	1	5420	0.000000	0.000000	0.400000	0.000000	9.000000	2.000000	0.500000
	1	5430	0.000000	0.000000	0.400000	0.000000	9.000000	2.000000	0.500000
	1	6110	0.000000	0.000000	0.400000	0.000000	9.000000	2.000000	0.500000
	1	6120	0.000000	0.000000	0.400000	0.000000	9.000000	2.000000	0.500000
	1	6130	0.000000	0.000000	0.400000	0.000000	9.000000	2.000000	0.500000
	1	6210	0.000000	0.000000	0.400000	0.000000	9.000000	2.000000	0.500000
	1	6220	0.000000	0.000000	0.400000	0.000000	9.000000	2.000000	0.500000
	1	6230	0.000000	0.000000	0.400000	0.000000	9.000000	2.000000	0.500000
	1	6310	0.000000	0.000000	0.400000	0.000000	9.000000	2.000000	0.500000
	1	6320	0.000000	0.000000	0.400000	0.000000	9.000000	2.000000	0.500000
	1	6330	0.000000	0.000000	0.400000	0.000000	9.000000	2.000000	0.500000
	1	6410	0.000000	0.000000	0.400000	0.000000	9.000000	2.000000	0.500000
	1	6420	0.000000	0.000000	0.400000	0.000000	9.000000	2.000000	0.500000
	1	6430	0.000000	0.000000	0.400000	0.000000	9.000000	2.000000	0.500000
	1	7110	0.000000	0.000000	0.400000	0.000000	9.000000	2.000000	0.500000
	1	7120	0.000000	0.000000	0.400000	0.000000	9.000000	2.000000	0.500000
	1	7130	0.000000	0.000000	0.400000	0.000000	9.000000	2.000000	0.500000
	1	7210	0.000000	0.000000	0.400000	0.000000	9.000000	2.000000	0.500000
	1	7220	0.000000	0.000000	0.400000	0.000000	9.000000	2.000000	0.500000
	1	7230	0.000000	0.000000	0.400000	0.000000	9.000000	2.000000	0.500000
	1	7310	0.000000	0.000000	0.400000	0.000000	9.000000	2.000000	0.500000
	1	7320	0.000000	0.000000	0.400000	0.000000	9.000000	2.000000	0.500000
	1	7330	0.000000	0.000000	0.400000	0.000000	9.000000	2.000000	0.500000
	1	7410	0.000000	0.000000	0.400000	0.000000	9.000000	2.000000	0.500000
	1	7420	0.000000	0.000000	0.400000	0.000000	9.000000	2.000000	0.500000
	1	7430	0.000000	0.000000	0.400000	0.000000	9.000000	2.000000	0.500000
	1	8110	0.000000	0.000000	0.400000	0.000000	9.000000	2.000000	0.500000
	1	8120	0.000000	0.000000	0.400000	0.000000	9.000000	2.000000	0.500000
	1	8130	0.000000	0.000000	0.400000	0.000000	9.000000	2.000000	0.500000
	1	8210	0.000000	0.000000	0.400000	0.000000	9.000000	2.000000	0.500000
	1	8220	0.000000	0.000000	0.400000	0.000000	9.000000	2.000000	0.500000
	1	8230	0.000000	0.000000	0.400000	0.000000	9.000000	2.000000	0.500000
	1	8310	0.000000	0.000000	0.400000	0.000000	9.000000	2.000000	0.500000
	1	8320	0.000000	0.000000	0.400000	0.000000	9.000000	2.000000	0.500000
	1	8330	0.000000	0.000000	0.400000	0.000000	9.000000	2.000000	0.500000
	1	8410	0.000000	0.000000	0.400000	0.000000	9.000000	2.000000	0.500000
	1	8420	0.000000	0.000000	0.400000	0.000000	9.000000	2.000000	0.500000
	1	8430	0.000000	0.000000	0.400000	0.000000	9.000000	2.000000	0.500000
	1	9000	0.000000	0.000000	0.400000	0.000000	9.000000	2.000000	0.500000
	1	10110	0.000000	0.000000	0.400000	0.000000	9.000000	2.000000	0.500000
	1	10120	0.000000	0.000000	0.400000	0.000000	9.000000	2.000000	0.500000
	1	10130	0.000000	0.000000	0.400000	0.000000	9.000000	2.000000	0.500000
	1	10210	0.000000	0.000000	0.400000	0.000000	9.000000	2.000000	0.500000
	1	10220	0.000000	0.000000	0.400000	0.000000	9.000000	2.000000	0.500000
	1	10230	0.000000	0.000000	0.400000	0.000000	9.000000	2.000000	0.500000
	1	10310	0.000000	0.000000	0.400000	0.000000	9.000000	2.000000	0.500000
	1	10320	0.000000	0.000000	0.400000	0.000000	9.000000	2.000000	0.500000
	1	10330	0.000000	0.000000	0.400000	0.000000	9.000000	2.000000	0.500000
	1	10410	0.000000	0.000000	0.400000	0.000000	9.000000	2.000000	0.500000
	1	10420	0.000000	0.000000	0.400000	0.000000	9.000000	2.000000	0.500000
	1	10430	0.000000	0.000000	0.400000	0.000000	9.000000	2.000000	0.500000
c------------------------------------------------------------------------------------
c150 mon-interception storage (cepscm)
c    only required if vcsfg=1 in pwat-parm1 (see card 100)
c
c    defid   parameter group id
c    deluid  landuse id
c    jan-dec interception storage capacity at start of each month (inches)
c
c	defid	deluid	jan	feb	mar	apr	may	jun	jul	aug	sep	oct	nov	dec
c------------------------------------------------------------------------------------
c160 mon-upper zone nominal storage (uzsnm)
c    only required if vuzfg=1 in pwat-parm1 (see card 100)
c
c    defid   parameter group id
c    deluid  landuse id
c    jan-dec upper zone nominal storage at start of each month (inches)
c
c	defid	deluid	jan	feb	mar	apr	may	jun	jul	aug	sep	oct	nov	dec
	1	1000	0.000000	0.000000	0.000000	0.000000	0.000000	0.000000	0.000000	0.000000	0.000000	0.000000	0.000000	0.000000
	1	2110	2.090500	2.090500	2.090500	1.393666	1.393666	1.393666	1.393666	1.393666	1.393666	1.393666	2.090500	2.090500
	1	2120	1.194571	1.194571	1.194571	0.796381	0.796381	0.796381	0.796381	0.796381	0.796381	0.796381	1.194571	1.194571
	1	2130	0.895928	0.895928	0.895928	0.597286	0.597286	0.597286	0.597286	0.597286	0.597286	0.597286	0.895928	0.895928
	1	2210	2.304000	2.304000	2.304000	1.536000	1.536000	1.536000	1.536000	1.536000	1.536000	1.536000	2.304000	2.304000
	1	2220	1.800546	1.800546	1.800546	1.200364	1.200364	1.200364	1.200364	1.200364	1.200364	1.200364	1.800546	1.800546
	1	2230	1.350409	1.350409	1.350409	0.900273	0.900273	0.900273	0.900273	0.900273	0.900273	0.900273	1.350409	1.350409
	1	2310	2.400000	2.400000	2.400000	1.600000	1.600000	1.600000	1.600000	1.600000	1.600000	1.600000	2.400000	2.400000
	1	2320	2.188800	2.188800	2.188800	1.459200	1.459200	1.459200	1.459200	1.459200	1.459200	1.459200	2.188800	2.188800
	1	2330	1.944000	1.944000	1.944000	1.296000	1.296000	1.296000	1.296000	1.296000	1.296000	1.296000	1.944000	1.944000
	1	2410	2.400000	2.400000	2.400000	1.600000	1.600000	1.600000	1.600000	1.600000	1.600000	1.600000	2.400000	2.400000
	1	2420	2.188800	2.188800	2.188800	1.459200	1.459200	1.459200	1.459200	1.459200	1.459200	1.459200	2.188800	2.188800
	1	2430	1.944000	1.944000	1.944000	1.296000	1.296000	1.296000	1.296000	1.296000	1.296000	1.296000	1.944000	1.944000
	1	3110	2.090500	2.090500	2.090500	1.393666	1.393666	1.393666	1.393666	1.393666	1.393666	1.393666	2.090500	2.090500
	1	3120	1.194571	1.194571	1.194571	0.796381	0.796381	0.796381	0.796381	0.796381	0.796381	0.796381	1.194571	1.194571
	1	3130	0.895928	0.895928	0.895928	0.597286	0.597286	0.597286	0.597286	0.597286	0.597286	0.597286	0.895928	0.895928
	1	3210	2.304000	2.304000	2.304000	1.536000	1.536000	1.536000	1.536000	1.536000	1.536000	1.536000	2.304000	2.304000
	1	3220	1.800546	1.800546	1.800546	1.200364	1.200364	1.200364	1.200364	1.200364	1.200364	1.200364	1.800546	1.800546
	1	3230	1.350409	1.350409	1.350409	0.900273	0.900273	0.900273	0.900273	0.900273	0.900273	0.900273	1.350409	1.350409
	1	3310	2.400000	2.400000	2.400000	1.600000	1.600000	1.600000	1.600000	1.600000	1.600000	1.600000	2.400000	2.400000
	1	3320	2.188800	2.188800	2.188800	1.459200	1.459200	1.459200	1.459200	1.459200	1.459200	1.459200	2.188800	2.188800
	1	3330	1.944000	1.944000	1.944000	1.296000	1.296000	1.296000	1.296000	1.296000	1.296000	1.296000	1.944000	1.944000
	1	3410	2.400000	2.400000	2.400000	1.600000	1.600000	1.600000	1.600000	1.600000	1.600000	1.600000	2.400000	2.400000
	1	3420	2.188800	2.188800	2.188800	1.459200	1.459200	1.459200	1.459200	1.459200	1.459200	1.459200	2.188800	2.188800
	1	3430	1.944000	1.944000	1.944000	1.296000	1.296000	1.296000	1.296000	1.296000	1.296000	1.296000	1.944000	1.944000
	1	4110	2.090500	2.090500	2.090500	1.393666	1.393666	1.393666	1.393666	1.393666	1.393666	1.393666	2.090500	2.090500
	1	4120	1.194571	1.194571	1.194571	0.796381	0.796381	0.796381	0.796381	0.796381	0.796381	0.796381	1.194571	1.194571
	1	4130	0.895928	0.895928	0.895928	0.597286	0.597286	0.597286	0.597286	0.597286	0.597286	0.597286	0.895928	0.895928
	1	4210	2.304000	2.304000	2.304000	1.536000	1.536000	1.536000	1.536000	1.536000	1.536000	1.536000	2.304000	2.304000
	1	4220	1.800546	1.800546	1.800546	1.200364	1.200364	1.200364	1.200364	1.200364	1.200364	1.200364	1.800546	1.800546
	1	4230	1.350409	1.350409	1.350409	0.900273	0.900273	0.900273	0.900273	0.900273	0.900273	0.900273	1.350409	1.350409
	1	4310	2.400000	2.400000	2.400000	1.600000	1.600000	1.600000	1.600000	1.600000	1.600000	1.600000	2.400000	2.400000
	1	4320	2.188800	2.188800	2.188800	1.459200	1.459200	1.459200	1.459200	1.459200	1.459200	1.459200	2.188800	2.188800
	1	4330	1.944000	1.944000	1.944000	1.296000	1.296000	1.296000	1.296000	1.296000	1.296000	1.296000	1.944000	1.944000
	1	4410	2.400000	2.400000	2.400000	1.600000	1.600000	1.600000	1.600000	1.600000	1.600000	1.600000	2.400000	2.400000
	1	4420	2.188800	2.188800	2.188800	1.459200	1.459200	1.459200	1.459200	1.459200	1.459200	1.459200	2.188800	2.188800
	1	4430	1.944000	1.944000	1.944000	1.296000	1.296000	1.296000	1.296000	1.296000	1.296000	1.296000	1.944000	1.944000
	1	5110	2.090500	2.090500	2.090500	1.393666	1.393666	1.393666	1.393666	1.393666	1.393666	1.393666	2.090500	2.090500
	1	5120	1.194571	1.194571	1.194571	0.796381	0.796381	0.796381	0.796381	0.796381	0.796381	0.796381	1.194571	1.194571
	1	5130	0.895928	0.895928	0.895928	0.597286	0.597286	0.597286	0.597286	0.597286	0.597286	0.597286	0.895928	0.895928
	1	5210	2.304000	2.304000	2.304000	1.536000	1.536000	1.536000	1.536000	1.536000	1.536000	1.536000	2.304000	2.304000
	1	5220	1.800546	1.800546	1.800546	1.200364	1.200364	1.200364	1.200364	1.200364	1.200364	1.200364	1.800546	1.800546
	1	5230	1.350409	1.350409	1.350409	0.900273	0.900273	0.900273	0.900273	0.900273	0.900273	0.900273	1.350409	1.350409
	1	5310	2.400000	2.400000	2.400000	1.600000	1.600000	1.600000	1.600000	1.600000	1.600000	1.600000	2.400000	2.400000
	1	5320	2.188800	2.188800	2.188800	1.459200	1.459200	1.459200	1.459200	1.459200	1.459200	1.459200	2.188800	2.188800
	1	5330	1.944000	1.944000	1.944000	1.296000	1.296000	1.296000	1.296000	1.296000	1.296000	1.296000	1.944000	1.944000
	1	5410	2.400000	2.400000	2.400000	1.600000	1.600000	1.600000	1.600000	1.600000	1.600000	1.600000	2.400000	2.400000
	1	5420	2.188800	2.188800	2.188800	1.459200	1.459200	1.459200	1.459200	1.459200	1.459200	1.459200	2.188800	2.188800
	1	5430	1.944000	1.944000	1.944000	1.296000	1.296000	1.296000	1.296000	1.296000	1.296000	1.296000	1.944000	1.944000
	1	6110	2.090500	2.090500	2.090500	1.393666	1.393666	1.393666	1.393666	1.393666	1.393666	1.393666	2.090500	2.090500
	1	6120	1.194571	1.194571	1.194571	0.796381	0.796381	0.796381	0.796381	0.796381	0.796381	0.796381	1.194571	1.194571
	1	6130	0.895928	0.895928	0.895928	0.597286	0.597286	0.597286	0.597286	0.597286	0.597286	0.597286	0.895928	0.895928
	1	6210	2.304000	2.304000	2.304000	1.536000	1.536000	1.536000	1.536000	1.536000	1.536000	1.536000	2.304000	2.304000
	1	6220	1.800546	1.800546	1.800546	1.200364	1.200364	1.200364	1.200364	1.200364	1.200364	1.200364	1.800546	1.800546
	1	6230	1.350409	1.350409	1.350409	0.900273	0.900273	0.900273	0.900273	0.900273	0.900273	0.900273	1.350409	1.350409
	1	6310	2.400000	2.400000	2.400000	1.600000	1.600000	1.600000	1.600000	1.600000	1.600000	1.600000	2.400000	2.400000
	1	6320	2.188800	2.188800	2.188800	1.459200	1.459200	1.459200	1.459200	1.459200	1.459200	1.459200	2.188800	2.188800
	1	6330	1.944000	1.944000	1.944000	1.296000	1.296000	1.296000	1.296000	1.296000	1.296000	1.296000	1.944000	1.944000
	1	6410	2.400000	2.400000	2.400000	1.600000	1.600000	1.600000	1.600000	1.600000	1.600000	1.600000	2.400000	2.400000
	1	6420	2.188800	2.188800	2.188800	1.459200	1.459200	1.459200	1.459200	1.459200	1.459200	1.459200	2.188800	2.188800
	1	6430	1.944000	1.944000	1.944000	1.296000	1.296000	1.296000	1.296000	1.296000	1.296000	1.296000	1.944000	1.944000
	1	7110	2.090500	2.090500	2.090500	1.393666	1.393666	1.393666	1.393666	1.393666	1.393666	1.393666	2.090500	2.090500
	1	7120	1.194571	1.194571	1.194571	0.796381	0.796381	0.796381	0.796381	0.796381	0.796381	0.796381	1.194571	1.194571
	1	7130	0.895928	0.895928	0.895928	0.597286	0.597286	0.597286	0.597286	0.597286	0.597286	0.597286	0.895928	0.895928
	1	7210	2.304000	2.304000	2.304000	1.536000	1.536000	1.536000	1.536000	1.536000	1.536000	1.536000	2.304000	2.304000
	1	7220	1.800546	1.800546	1.800546	1.200364	1.200364	1.200364	1.200364	1.200364	1.200364	1.200364	1.800546	1.800546
	1	7230	1.350409	1.350409	1.350409	0.900273	0.900273	0.900273	0.900273	0.900273	0.900273	0.900273	1.350409	1.350409
	1	7310	2.400000	2.400000	2.400000	1.600000	1.600000	1.600000	1.600000	1.600000	1.600000	1.600000	2.400000	2.400000
	1	7320	2.188800	2.188800	2.188800	1.459200	1.459200	1.459200	1.459200	1.459200	1.459200	1.459200	2.188800	2.188800
	1	7330	1.944000	1.944000	1.944000	1.296000	1.296000	1.296000	1.296000	1.296000	1.296000	1.296000	1.944000	1.944000
	1	7410	2.400000	2.400000	2.400000	1.600000	1.600000	1.600000	1.600000	1.600000	1.600000	1.600000	2.400000	2.400000
	1	7420	2.188800	2.188800	2.188800	1.459200	1.459200	1.459200	1.459200	1.459200	1.459200	1.459200	2.188800	2.188800
	1	7430	1.944000	1.944000	1.944000	1.296000	1.296000	1.296000	1.296000	1.296000	1.296000	1.296000	1.944000	1.944000
	1	8110	2.090500	2.090500	2.090500	1.393666	1.393666	1.393666	1.393666	1.393666	1.393666	1.393666	2.090500	2.090500
	1	8120	1.194571	1.194571	1.194571	0.796381	0.796381	0.796381	0.796381	0.796381	0.796381	0.796381	1.194571	1.194571
	1	8130	0.895928	0.895928	0.895928	0.597286	0.597286	0.597286	0.597286	0.597286	0.597286	0.597286	0.895928	0.895928
	1	8210	2.304000	2.304000	2.304000	1.536000	1.536000	1.536000	1.536000	1.536000	1.536000	1.536000	2.304000	2.304000
	1	8220	1.800546	1.800546	1.800546	1.200364	1.200364	1.200364	1.200364	1.200364	1.200364	1.200364	1.800546	1.800546
	1	8230	1.350409	1.350409	1.350409	0.900273	0.900273	0.900273	0.900273	0.900273	0.900273	0.900273	1.350409	1.350409
	1	8310	2.400000	2.400000	2.400000	1.600000	1.600000	1.600000	1.600000	1.600000	1.600000	1.600000	2.400000	2.400000
	1	8320	2.188800	2.188800	2.188800	1.459200	1.459200	1.459200	1.459200	1.459200	1.459200	1.459200	2.188800	2.188800
	1	8330	1.944000	1.944000	1.944000	1.296000	1.296000	1.296000	1.296000	1.296000	1.296000	1.296000	1.944000	1.944000
	1	8410	2.400000	2.400000	2.400000	1.600000	1.600000	1.600000	1.600000	1.600000	1.600000	1.600000	2.400000	2.400000
	1	8420	2.188800	2.188800	2.188800	1.459200	1.459200	1.459200	1.459200	1.459200	1.459200	1.459200	2.188800	2.188800
	1	8430	1.944000	1.944000	1.944000	1.296000	1.296000	1.296000	1.296000	1.296000	1.296000	1.296000	1.944000	1.944000
	1	9000	1.536000	1.536000	1.536000	1.024000	1.024000	1.024000	1.024000	1.024000	1.024000	1.024000	1.536000	1.536000
	1	10110	2.090500	2.090500	2.090500	1.393666	1.393666	1.393666	1.393666	1.393666	1.393666	1.393666	2.090500	2.090500
	1	10120	1.194571	1.194571	1.194571	0.796381	0.796381	0.796381	0.796381	0.796381	0.796381	0.796381	1.194571	1.194571
	1	10130	0.895928	0.895928	0.895928	0.597286	0.597286	0.597286	0.597286	0.597286	0.597286	0.597286	0.895928	0.895928
	1	10210	2.304000	2.304000	2.304000	1.536000	1.536000	1.536000	1.536000	1.536000	1.536000	1.536000	2.304000	2.304000
	1	10220	1.800546	1.800546	1.800546	1.200364	1.200364	1.200364	1.200364	1.200364	1.200364	1.200364	1.800546	1.800546
	1	10230	1.350409	1.350409	1.350409	0.900273	0.900273	0.900273	0.900273	0.900273	0.900273	0.900273	1.350409	1.350409
	1	10310	2.400000	2.400000	2.400000	1.600000	1.600000	1.600000	1.600000	1.600000	1.600000	1.600000	2.400000	2.400000
	1	10320	2.188800	2.188800	2.188800	1.459200	1.459200	1.459200	1.459200	1.459200	1.459200	1.459200	2.188800	2.188800
	1	10330	1.944000	1.944000	1.944000	1.296000	1.296000	1.296000	1.296000	1.296000	1.296000	1.296000	1.944000	1.944000
	1	10410	2.400000	2.400000	2.400000	1.600000	1.600000	1.600000	1.600000	1.600000	1.600000	1.600000	2.400000	2.400000
	1	10420	2.188800	2.188800	2.188800	1.459200	1.459200	1.459200	1.459200	1.459200	1.459200	1.459200	2.188800	2.188800
	1	10430	1.944000	1.944000	1.944000	1.296000	1.296000	1.296000	1.296000	1.296000	1.296000	1.296000	1.944000	1.944000
c--------------------------------------------------------------------------------------
c170 mon-Manning's roughness coefficient (nsurm)
c    only required if vnnfg=1 in pwat-parm1 (see card 100)
c
c    defid   parameter group id
c    deluid  landuse id
c    jan-dec Manning's roughness coefficient at start of each month (none)
c
c	defid	deluid	jan	feb	mar	apr	may	jun	jul	aug	sep	oct	nov	dec
c--------------------------------------------------------------------------------------
c180 mon-interflow inflow parameter (intfwm)
c    only required if vifwfg=1 in pwat-parm1 (see card 100)
c
c    defid   parameter group id
c    deluid  landuse id
c    jan-dec interflow inflow parameter at start of each month (none)
c
c	defid	deluid	jan	feb	mar	apr	may	jun	jul	aug	sep	oct	nov	dec
	1	1000	0.000000	0.000000	0.000000	0.000000	0.000000	0.000000	0.000000	0.000000	0.000000	0.000000	0.000000	0.000000
	1	2110	2.000000	2.500000	2.500000	2.500000	2.000000	2.000000	2.000000	2.000000	2.000000	1.000000	1.000000	2.000000
	1	2120	2.000000	2.500000	2.500000	2.500000	2.000000	2.000000	2.000000	2.000000	2.000000	1.000000	1.000000	2.000000
	1	2130	2.000000	2.500000	2.500000	2.500000	2.000000	2.000000	2.000000	2.000000	2.000000	1.000000	1.000000	2.000000
	1	2210	2.000000	2.500000	2.500000	2.500000	2.000000	2.000000	2.000000	2.000000	2.000000	1.000000	1.000000	2.000000
	1	2220	2.000000	2.500000	2.500000	2.500000	2.000000	2.000000	2.000000	2.000000	2.000000	1.000000	1.000000	2.000000
	1	2230	2.000000	2.500000	2.500000	2.500000	2.000000	2.000000	2.000000	2.000000	2.000000	1.000000	1.000000	2.000000
	1	2310	2.000000	2.500000	2.500000	2.500000	2.000000	2.000000	2.000000	2.000000	2.000000	1.000000	1.000000	2.000000
	1	2320	2.000000	2.500000	2.500000	2.500000	2.000000	2.000000	2.000000	2.000000	2.000000	1.000000	1.000000	2.000000
	1	2330	2.000000	2.500000	2.500000	2.500000	2.000000	2.000000	2.000000	2.000000	2.000000	1.000000	1.000000	2.000000
	1	2410	2.000000	2.500000	2.500000	2.500000	2.000000	2.000000	2.000000	2.000000	2.000000	1.000000	1.000000	2.000000
	1	2420	2.000000	2.500000	2.500000	2.500000	2.000000	2.000000	2.000000	2.000000	2.000000	1.000000	1.000000	2.000000
	1	2430	2.000000	2.500000	2.500000	2.500000	2.000000	2.000000	2.000000	2.000000	2.000000	1.000000	1.000000	2.000000
	1	3110	2.000000	2.500000	2.500000	2.500000	2.000000	2.000000	2.000000	2.000000	2.000000	1.000000	1.000000	2.000000
	1	3120	2.000000	2.500000	2.500000	2.500000	2.000000	2.000000	2.000000	2.000000	2.000000	1.000000	1.000000	2.000000
	1	3130	2.000000	2.500000	2.500000	2.500000	2.000000	2.000000	2.000000	2.000000	2.000000	1.000000	1.000000	2.000000
	1	3210	2.000000	2.500000	2.500000	2.500000	2.000000	2.000000	2.000000	2.000000	2.000000	1.000000	1.000000	2.000000
	1	3220	2.000000	2.500000	2.500000	2.500000	2.000000	2.000000	2.000000	2.000000	2.000000	1.000000	1.000000	2.000000
	1	3230	2.000000	2.500000	2.500000	2.500000	2.000000	2.000000	2.000000	2.000000	2.000000	1.000000	1.000000	2.000000
	1	3310	2.000000	2.500000	2.500000	2.500000	2.000000	2.000000	2.000000	2.000000	2.000000	1.000000	1.000000	2.000000
	1	3320	2.000000	2.500000	2.500000	2.500000	2.000000	2.000000	2.000000	2.000000	2.000000	1.000000	1.000000	2.000000
	1	3330	2.000000	2.500000	2.500000	2.500000	2.000000	2.000000	2.000000	2.000000	2.000000	1.000000	1.000000	2.000000
	1	3410	2.000000	2.500000	2.500000	2.500000	2.000000	2.000000	2.000000	2.000000	2.000000	1.000000	1.000000	2.000000
	1	3420	2.000000	2.500000	2.500000	2.500000	2.000000	2.000000	2.000000	2.000000	2.000000	1.000000	1.000000	2.000000
	1	3430	2.000000	2.500000	2.500000	2.500000	2.000000	2.000000	2.000000	2.000000	2.000000	1.000000	1.000000	2.000000
	1	4110	2.000000	2.500000	2.500000	2.500000	2.000000	2.000000	2.000000	2.000000	2.000000	1.000000	1.000000	2.000000
	1	4120	2.000000	2.500000	2.500000	2.500000	2.000000	2.000000	2.000000	2.000000	2.000000	1.000000	1.000000	2.000000
	1	4130	2.000000	2.500000	2.500000	2.500000	2.000000	2.000000	2.000000	2.000000	2.000000	1.000000	1.000000	2.000000
	1	4210	2.000000	2.500000	2.500000	2.500000	2.000000	2.000000	2.000000	2.000000	2.000000	1.000000	1.000000	2.000000
	1	4220	2.000000	2.500000	2.500000	2.500000	2.000000	2.000000	2.000000	2.000000	2.000000	1.000000	1.000000	2.000000
	1	4230	2.000000	2.500000	2.500000	2.500000	2.000000	2.000000	2.000000	2.000000	2.000000	1.000000	1.000000	2.000000
	1	4310	2.000000	2.500000	2.500000	2.500000	2.000000	2.000000	2.000000	2.000000	2.000000	1.000000	1.000000	2.000000
	1	4320	2.000000	2.500000	2.500000	2.500000	2.000000	2.000000	2.000000	2.000000	2.000000	1.000000	1.000000	2.000000
	1	4330	2.000000	2.500000	2.500000	2.500000	2.000000	2.000000	2.000000	2.000000	2.000000	1.000000	1.000000	2.000000
	1	4410	2.000000	2.500000	2.500000	2.500000	2.000000	2.000000	2.000000	2.000000	2.000000	1.000000	1.000000	2.000000
	1	4420	2.000000	2.500000	2.500000	2.500000	2.000000	2.000000	2.000000	2.000000	2.000000	1.000000	1.000000	2.000000
	1	4430	2.000000	2.500000	2.500000	2.500000	2.000000	2.000000	2.000000	2.000000	2.000000	1.000000	1.000000	2.000000
	1	5110	2.000000	2.500000	2.500000	2.500000	2.000000	2.000000	2.000000	2.000000	2.000000	1.000000	1.000000	2.000000
	1	5120	2.000000	2.500000	2.500000	2.500000	2.000000	2.000000	2.000000	2.000000	2.000000	1.000000	1.000000	2.000000
	1	5130	2.000000	2.500000	2.500000	2.500000	2.000000	2.000000	2.000000	2.000000	2.000000	1.000000	1.000000	2.000000
	1	5210	2.000000	2.500000	2.500000	2.500000	2.000000	2.000000	2.000000	2.000000	2.000000	1.000000	1.000000	2.000000
	1	5220	2.000000	2.500000	2.500000	2.500000	2.000000	2.000000	2.000000	2.000000	2.000000	1.000000	1.000000	2.000000
	1	5230	2.000000	2.500000	2.500000	2.500000	2.000000	2.000000	2.000000	2.000000	2.000000	1.000000	1.000000	2.000000
	1	5310	2.000000	2.500000	2.500000	2.500000	2.000000	2.000000	2.000000	2.000000	2.000000	1.000000	1.000000	2.000000
	1	5320	2.000000	2.500000	2.500000	2.500000	2.000000	2.000000	2.000000	2.000000	2.000000	1.000000	1.000000	2.000000
	1	5330	2.000000	2.500000	2.500000	2.500000	2.000000	2.000000	2.000000	2.000000	2.000000	1.000000	1.000000	2.000000
	1	5410	2.000000	2.500000	2.500000	2.500000	2.000000	2.000000	2.000000	2.000000	2.000000	1.000000	1.000000	2.000000
	1	5420	2.000000	2.500000	2.500000	2.500000	2.000000	2.000000	2.000000	2.000000	2.000000	1.000000	1.000000	2.000000
	1	5430	2.000000	2.500000	2.500000	2.500000	2.000000	2.000000	2.000000	2.000000	2.000000	1.000000	1.000000	2.000000
	1	6110	2.000000	2.500000	2.500000	2.500000	2.000000	2.000000	2.000000	2.000000	2.000000	1.000000	1.000000	2.000000
	1	6120	2.000000	2.500000	2.500000	2.500000	2.000000	2.000000	2.000000	2.000000	2.000000	1.000000	1.000000	2.000000
	1	6130	2.000000	2.500000	2.500000	2.500000	2.000000	2.000000	2.000000	2.000000	2.000000	1.000000	1.000000	2.000000
	1	6210	2.000000	2.500000	2.500000	2.500000	2.000000	2.000000	2.000000	2.000000	2.000000	1.000000	1.000000	2.000000
	1	6220	2.000000	2.500000	2.500000	2.500000	2.000000	2.000000	2.000000	2.000000	2.000000	1.000000	1.000000	2.000000
	1	6230	2.000000	2.500000	2.500000	2.500000	2.000000	2.000000	2.000000	2.000000	2.000000	1.000000	1.000000	2.000000
	1	6310	2.000000	2.500000	2.500000	2.500000	2.000000	2.000000	2.000000	2.000000	2.000000	1.000000	1.000000	2.000000
	1	6320	2.000000	2.500000	2.500000	2.500000	2.000000	2.000000	2.000000	2.000000	2.000000	1.000000	1.000000	2.000000
	1	6330	2.000000	2.500000	2.500000	2.500000	2.000000	2.000000	2.000000	2.000000	2.000000	1.000000	1.000000	2.000000
	1	6410	2.000000	2.500000	2.500000	2.500000	2.000000	2.000000	2.000000	2.000000	2.000000	1.000000	1.000000	2.000000
	1	6420	2.000000	2.500000	2.500000	2.500000	2.000000	2.000000	2.000000	2.000000	2.000000	1.000000	1.000000	2.000000
	1	6430	2.000000	2.500000	2.500000	2.500000	2.000000	2.000000	2.000000	2.000000	2.000000	1.000000	1.000000	2.000000
	1	7110	2.000000	2.500000	2.500000	2.500000	2.000000	2.000000	2.000000	2.000000	2.000000	1.000000	1.000000	2.000000
	1	7120	2.000000	2.500000	2.500000	2.500000	2.000000	2.000000	2.000000	2.000000	2.000000	1.000000	1.000000	2.000000
	1	7130	2.000000	2.500000	2.500000	2.500000	2.000000	2.000000	2.000000	2.000000	2.000000	1.000000	1.000000	2.000000
	1	7210	2.000000	2.500000	2.500000	2.500000	2.000000	2.000000	2.000000	2.000000	2.000000	1.000000	1.000000	2.000000
	1	7220	2.000000	2.500000	2.500000	2.500000	2.000000	2.000000	2.000000	2.000000	2.000000	1.000000	1.000000	2.000000
	1	7230	2.000000	2.500000	2.500000	2.500000	2.000000	2.000000	2.000000	2.000000	2.000000	1.000000	1.000000	2.000000
	1	7310	2.000000	2.500000	2.500000	2.500000	2.000000	2.000000	2.000000	2.000000	2.000000	1.000000	1.000000	2.000000
	1	7320	2.000000	2.500000	2.500000	2.500000	2.000000	2.000000	2.000000	2.000000	2.000000	1.000000	1.000000	2.000000
	1	7330	2.000000	2.500000	2.500000	2.500000	2.000000	2.000000	2.000000	2.000000	2.000000	1.000000	1.000000	2.000000
	1	7410	2.000000	2.500000	2.500000	2.500000	2.000000	2.000000	2.000000	2.000000	2.000000	1.000000	1.000000	2.000000
	1	7420	2.000000	2.500000	2.500000	2.500000	2.000000	2.000000	2.000000	2.000000	2.000000	1.000000	1.000000	2.000000
	1	7430	2.000000	2.500000	2.500000	2.500000	2.000000	2.000000	2.000000	2.000000	2.000000	1.000000	1.000000	2.000000
	1	8110	2.000000	2.500000	2.500000	2.500000	2.000000	2.000000	2.000000	2.000000	2.000000	1.000000	1.000000	2.000000
	1	8120	2.000000	2.500000	2.500000	2.500000	2.000000	2.000000	2.000000	2.000000	2.000000	1.000000	1.000000	2.000000
	1	8130	2.000000	2.500000	2.500000	2.500000	2.000000	2.000000	2.000000	2.000000	2.000000	1.000000	1.000000	2.000000
	1	8210	2.000000	2.500000	2.500000	2.500000	2.000000	2.000000	2.000000	2.000000	2.000000	1.000000	1.000000	2.000000
	1	8220	2.000000	2.500000	2.500000	2.500000	2.000000	2.000000	2.000000	2.000000	2.000000	1.000000	1.000000	2.000000
	1	8230	2.000000	2.500000	2.500000	2.500000	2.000000	2.000000	2.000000	2.000000	2.000000	1.000000	1.000000	2.000000
	1	8310	2.000000	2.500000	2.500000	2.500000	2.000000	2.000000	2.000000	2.000000	2.000000	1.000000	1.000000	2.000000
	1	8320	2.000000	2.500000	2.500000	2.500000	2.000000	2.000000	2.000000	2.000000	2.000000	1.000000	1.000000	2.000000
	1	8330	2.000000	2.500000	2.500000	2.500000	2.000000	2.000000	2.000000	2.000000	2.000000	1.000000	1.000000	2.000000
	1	8410	2.000000	2.500000	2.500000	2.500000	2.000000	2.000000	2.000000	2.000000	2.000000	1.000000	1.000000	2.000000
	1	8420	2.000000	2.500000	2.500000	2.500000	2.000000	2.000000	2.000000	2.000000	2.000000	1.000000	1.000000	2.000000
	1	8430	2.000000	2.500000	2.500000	2.500000	2.000000	2.000000	2.000000	2.000000	2.000000	1.000000	1.000000	2.000000
	1	9000	2.000000	2.500000	2.500000	2.500000	2.000000	2.000000	2.000000	2.000000	2.000000	1.000000	1.000000	2.000000
	1	10110	2.000000	2.500000	2.500000	2.500000	2.000000	2.000000	2.000000	2.000000	2.000000	1.000000	1.000000	2.000000
	1	10120	2.000000	2.500000	2.500000	2.500000	2.000000	2.000000	2.000000	2.000000	2.000000	1.000000	1.000000	2.000000
	1	10130	2.000000	2.500000	2.500000	2.500000	2.000000	2.000000	2.000000	2.000000	2.000000	1.000000	1.000000	2.000000
	1	10210	2.000000	2.500000	2.500000	2.500000	2.000000	2.000000	2.000000	2.000000	2.000000	1.000000	1.000000	2.000000
	1	10220	2.000000	2.500000	2.500000	2.500000	2.000000	2.000000	2.000000	2.000000	2.000000	1.000000	1.000000	2.000000
	1	10230	2.000000	2.500000	2.500000	2.500000	2.000000	2.000000	2.000000	2.000000	2.000000	1.000000	1.000000	2.000000
	1	10310	2.000000	2.500000	2.500000	2.500000	2.000000	2.000000	2.000000	2.000000	2.000000	1.000000	1.000000	2.000000
	1	10320	2.000000	2.500000	2.500000	2.500000	2.000000	2.000000	2.000000	2.000000	2.000000	1.000000	1.000000	2.000000
	1	10330	2.000000	2.500000	2.500000	2.500000	2.000000	2.000000	2.000000	2.000000	2.000000	1.000000	1.000000	2.000000
	1	10410	2.000000	2.500000	2.500000	2.500000	2.000000	2.000000	2.000000	2.000000	2.000000	1.000000	1.000000	2.000000
	1	10420	2.000000	2.500000	2.500000	2.500000	2.000000	2.000000	2.000000	2.000000	2.000000	1.000000	1.000000	2.000000
	1	10430	2.000000	2.500000	2.500000	2.500000	2.000000	2.000000	2.000000	2.000000	2.000000	1.000000	1.000000	2.000000
c--------------------------------------------------------------------------------------
c190 mon-interflow recession constant (ircm)
c    only required if vircfg=1 in pwat-parm1 (see card 100)
c
c    defid   parameter group id
c    deluid  landuse id
c    jan-dec interflow recession constant at start of each month (none)
c
c	defid	deluid	jan	feb	mar	apr	may	jun	jul	aug	sep	oct	nov	dec
	1	1000	0.000000	0.000000	0.000000	0.000000	0.000000	0.000000	0.000000	0.000000	0.000000	0.000000	0.000000	0.000000
	1	2110	0.600000	0.650000	0.650000	0.650000	0.600000	0.600000	0.600000	0.600000	0.600000	0.500000	0.500000	0.600000
	1	2120	0.600000	0.650000	0.650000	0.650000	0.600000	0.600000	0.600000	0.600000	0.600000	0.500000	0.500000	0.600000
	1	2130	0.600000	0.650000	0.650000	0.650000	0.600000	0.600000	0.600000	0.600000	0.600000	0.500000	0.500000	0.600000
	1	2210	0.600000	0.650000	0.650000	0.650000	0.600000	0.600000	0.600000	0.600000	0.600000	0.500000	0.500000	0.600000
	1	2220	0.600000	0.650000	0.650000	0.650000	0.600000	0.600000	0.600000	0.600000	0.600000	0.500000	0.500000	0.600000
	1	2230	0.600000	0.650000	0.650000	0.650000	0.600000	0.600000	0.600000	0.600000	0.600000	0.500000	0.500000	0.600000
	1	2310	0.600000	0.650000	0.650000	0.650000	0.600000	0.600000	0.600000	0.600000	0.600000	0.500000	0.500000	0.600000
	1	2320	0.600000	0.650000	0.650000	0.650000	0.600000	0.600000	0.600000	0.600000	0.600000	0.500000	0.500000	0.600000
	1	2330	0.600000	0.650000	0.650000	0.650000	0.600000	0.600000	0.600000	0.600000	0.600000	0.500000	0.500000	0.600000
	1	2410	0.600000	0.650000	0.650000	0.650000	0.600000	0.600000	0.600000	0.600000	0.600000	0.500000	0.500000	0.600000
	1	2420	0.600000	0.650000	0.650000	0.650000	0.600000	0.600000	0.600000	0.600000	0.600000	0.500000	0.500000	0.600000
	1	2430	0.600000	0.650000	0.650000	0.650000	0.600000	0.600000	0.600000	0.600000	0.600000	0.500000	0.500000	0.600000
	1	3110	0.600000	0.650000	0.650000	0.650000	0.600000	0.600000	0.600000	0.600000	0.600000	0.500000	0.500000	0.600000
	1	3120	0.600000	0.650000	0.650000	0.650000	0.600000	0.600000	0.600000	0.600000	0.600000	0.500000	0.500000	0.600000
	1	3130	0.600000	0.650000	0.650000	0.650000	0.600000	0.600000	0.600000	0.600000	0.600000	0.500000	0.500000	0.600000
	1	3210	0.600000	0.650000	0.650000	0.650000	0.600000	0.600000	0.600000	0.600000	0.600000	0.500000	0.500000	0.600000
	1	3220	0.600000	0.650000	0.650000	0.650000	0.600000	0.600000	0.600000	0.600000	0.600000	0.500000	0.500000	0.600000
	1	3230	0.600000	0.650000	0.650000	0.650000	0.600000	0.600000	0.600000	0.600000	0.600000	0.500000	0.500000	0.600000
	1	3310	0.600000	0.650000	0.650000	0.650000	0.600000	0.600000	0.600000	0.600000	0.600000	0.500000	0.500000	0.600000
	1	3320	0.600000	0.650000	0.650000	0.650000	0.600000	0.600000	0.600000	0.600000	0.600000	0.500000	0.500000	0.600000
	1	3330	0.600000	0.650000	0.650000	0.650000	0.600000	0.600000	0.600000	0.600000	0.600000	0.500000	0.500000	0.600000
	1	3410	0.600000	0.650000	0.650000	0.650000	0.600000	0.600000	0.600000	0.600000	0.600000	0.500000	0.500000	0.600000
	1	3420	0.600000	0.650000	0.650000	0.650000	0.600000	0.600000	0.600000	0.600000	0.600000	0.500000	0.500000	0.600000
	1	3430	0.600000	0.650000	0.650000	0.650000	0.600000	0.600000	0.600000	0.600000	0.600000	0.500000	0.500000	0.600000
	1	4110	0.600000	0.650000	0.650000	0.650000	0.600000	0.600000	0.600000	0.600000	0.600000	0.500000	0.500000	0.600000
	1	4120	0.600000	0.650000	0.650000	0.650000	0.600000	0.600000	0.600000	0.600000	0.600000	0.500000	0.500000	0.600000
	1	4130	0.600000	0.650000	0.650000	0.650000	0.600000	0.600000	0.600000	0.600000	0.600000	0.500000	0.500000	0.600000
	1	4210	0.600000	0.650000	0.650000	0.650000	0.600000	0.600000	0.600000	0.600000	0.600000	0.500000	0.500000	0.600000
	1	4220	0.600000	0.650000	0.650000	0.650000	0.600000	0.600000	0.600000	0.600000	0.600000	0.500000	0.500000	0.600000
	1	4230	0.600000	0.650000	0.650000	0.650000	0.600000	0.600000	0.600000	0.600000	0.600000	0.500000	0.500000	0.600000
	1	4310	0.600000	0.650000	0.650000	0.650000	0.600000	0.600000	0.600000	0.600000	0.600000	0.500000	0.500000	0.600000
	1	4320	0.600000	0.650000	0.650000	0.650000	0.600000	0.600000	0.600000	0.600000	0.600000	0.500000	0.500000	0.600000
	1	4330	0.600000	0.650000	0.650000	0.650000	0.600000	0.600000	0.600000	0.600000	0.600000	0.500000	0.500000	0.600000
	1	4410	0.600000	0.650000	0.650000	0.650000	0.600000	0.600000	0.600000	0.600000	0.600000	0.500000	0.500000	0.600000
	1	4420	0.600000	0.650000	0.650000	0.650000	0.600000	0.600000	0.600000	0.600000	0.600000	0.500000	0.500000	0.600000
	1	4430	0.600000	0.650000	0.650000	0.650000	0.600000	0.600000	0.600000	0.600000	0.600000	0.500000	0.500000	0.600000
	1	5110	0.600000	0.650000	0.650000	0.650000	0.600000	0.600000	0.600000	0.600000	0.600000	0.500000	0.500000	0.600000
	1	5120	0.600000	0.650000	0.650000	0.650000	0.600000	0.600000	0.600000	0.600000	0.600000	0.500000	0.500000	0.600000
	1	5130	0.600000	0.650000	0.650000	0.650000	0.600000	0.600000	0.600000	0.600000	0.600000	0.500000	0.500000	0.600000
	1	5210	0.600000	0.650000	0.650000	0.650000	0.600000	0.600000	0.600000	0.600000	0.600000	0.500000	0.500000	0.600000
	1	5220	0.600000	0.650000	0.650000	0.650000	0.600000	0.600000	0.600000	0.600000	0.600000	0.500000	0.500000	0.600000
	1	5230	0.600000	0.650000	0.650000	0.650000	0.600000	0.600000	0.600000	0.600000	0.600000	0.500000	0.500000	0.600000
	1	5310	0.600000	0.650000	0.650000	0.650000	0.600000	0.600000	0.600000	0.600000	0.600000	0.500000	0.500000	0.600000
	1	5320	0.600000	0.650000	0.650000	0.650000	0.600000	0.600000	0.600000	0.600000	0.600000	0.500000	0.500000	0.600000
	1	5330	0.600000	0.650000	0.650000	0.650000	0.600000	0.600000	0.600000	0.600000	0.600000	0.500000	0.500000	0.600000
	1	5410	0.600000	0.650000	0.650000	0.650000	0.600000	0.600000	0.600000	0.600000	0.600000	0.500000	0.500000	0.600000
	1	5420	0.600000	0.650000	0.650000	0.650000	0.600000	0.600000	0.600000	0.600000	0.600000	0.500000	0.500000	0.600000
	1	5430	0.600000	0.650000	0.650000	0.650000	0.600000	0.600000	0.600000	0.600000	0.600000	0.500000	0.500000	0.600000
	1	6110	0.600000	0.650000	0.650000	0.650000	0.600000	0.600000	0.600000	0.600000	0.600000	0.500000	0.500000	0.600000
	1	6120	0.600000	0.650000	0.650000	0.650000	0.600000	0.600000	0.600000	0.600000	0.600000	0.500000	0.500000	0.600000
	1	6130	0.600000	0.650000	0.650000	0.650000	0.600000	0.600000	0.600000	0.600000	0.600000	0.500000	0.500000	0.600000
	1	6210	0.600000	0.650000	0.650000	0.650000	0.600000	0.600000	0.600000	0.600000	0.600000	0.500000	0.500000	0.600000
	1	6220	0.600000	0.650000	0.650000	0.650000	0.600000	0.600000	0.600000	0.600000	0.600000	0.500000	0.500000	0.600000
	1	6230	0.600000	0.650000	0.650000	0.650000	0.600000	0.600000	0.600000	0.600000	0.600000	0.500000	0.500000	0.600000
	1	6310	0.600000	0.650000	0.650000	0.650000	0.600000	0.600000	0.600000	0.600000	0.600000	0.500000	0.500000	0.600000
	1	6320	0.600000	0.650000	0.650000	0.650000	0.600000	0.600000	0.600000	0.600000	0.600000	0.500000	0.500000	0.600000
	1	6330	0.600000	0.650000	0.650000	0.650000	0.600000	0.600000	0.600000	0.600000	0.600000	0.500000	0.500000	0.600000
	1	6410	0.600000	0.650000	0.650000	0.650000	0.600000	0.600000	0.600000	0.600000	0.600000	0.500000	0.500000	0.600000
	1	6420	0.600000	0.650000	0.650000	0.650000	0.600000	0.600000	0.600000	0.600000	0.600000	0.500000	0.500000	0.600000
	1	6430	0.600000	0.650000	0.650000	0.650000	0.600000	0.600000	0.600000	0.600000	0.600000	0.500000	0.500000	0.600000
	1	7110	0.600000	0.650000	0.650000	0.650000	0.600000	0.600000	0.600000	0.600000	0.600000	0.500000	0.500000	0.600000
	1	7120	0.600000	0.650000	0.650000	0.650000	0.600000	0.600000	0.600000	0.600000	0.600000	0.500000	0.500000	0.600000
	1	7130	0.600000	0.650000	0.650000	0.650000	0.600000	0.600000	0.600000	0.600000	0.600000	0.500000	0.500000	0.600000
	1	7210	0.600000	0.650000	0.650000	0.650000	0.600000	0.600000	0.600000	0.600000	0.600000	0.500000	0.500000	0.600000
	1	7220	0.600000	0.650000	0.650000	0.650000	0.600000	0.600000	0.600000	0.600000	0.600000	0.500000	0.500000	0.600000
	1	7230	0.600000	0.650000	0.650000	0.650000	0.600000	0.600000	0.600000	0.600000	0.600000	0.500000	0.500000	0.600000
	1	7310	0.600000	0.650000	0.650000	0.650000	0.600000	0.600000	0.600000	0.600000	0.600000	0.500000	0.500000	0.600000
	1	7320	0.600000	0.650000	0.650000	0.650000	0.600000	0.600000	0.600000	0.600000	0.600000	0.500000	0.500000	0.600000
	1	7330	0.600000	0.650000	0.650000	0.650000	0.600000	0.600000	0.600000	0.600000	0.600000	0.500000	0.500000	0.600000
	1	7410	0.600000	0.650000	0.650000	0.650000	0.600000	0.600000	0.600000	0.600000	0.600000	0.500000	0.500000	0.600000
	1	7420	0.600000	0.650000	0.650000	0.650000	0.600000	0.600000	0.600000	0.600000	0.600000	0.500000	0.500000	0.600000
	1	7430	0.600000	0.650000	0.650000	0.650000	0.600000	0.600000	0.600000	0.600000	0.600000	0.500000	0.500000	0.600000
	1	8110	0.600000	0.650000	0.650000	0.650000	0.600000	0.600000	0.600000	0.600000	0.600000	0.500000	0.500000	0.600000
	1	8120	0.600000	0.650000	0.650000	0.650000	0.600000	0.600000	0.600000	0.600000	0.600000	0.500000	0.500000	0.600000
	1	8130	0.600000	0.650000	0.650000	0.650000	0.600000	0.600000	0.600000	0.600000	0.600000	0.500000	0.500000	0.600000
	1	8210	0.600000	0.650000	0.650000	0.650000	0.600000	0.600000	0.600000	0.600000	0.600000	0.500000	0.500000	0.600000
	1	8220	0.600000	0.650000	0.650000	0.650000	0.600000	0.600000	0.600000	0.600000	0.600000	0.500000	0.500000	0.600000
	1	8230	0.600000	0.650000	0.650000	0.650000	0.600000	0.600000	0.600000	0.600000	0.600000	0.500000	0.500000	0.600000
	1	8310	0.600000	0.650000	0.650000	0.650000	0.600000	0.600000	0.600000	0.600000	0.600000	0.500000	0.500000	0.600000
	1	8320	0.600000	0.650000	0.650000	0.650000	0.600000	0.600000	0.600000	0.600000	0.600000	0.500000	0.500000	0.600000
	1	8330	0.600000	0.650000	0.650000	0.650000	0.600000	0.600000	0.600000	0.600000	0.600000	0.500000	0.500000	0.600000
	1	8410	0.600000	0.650000	0.650000	0.650000	0.600000	0.600000	0.600000	0.600000	0.600000	0.500000	0.500000	0.600000
	1	8420	0.600000	0.650000	0.650000	0.650000	0.600000	0.600000	0.600000	0.600000	0.600000	0.500000	0.500000	0.600000
	1	8430	0.600000	0.650000	0.650000	0.650000	0.600000	0.600000	0.600000	0.600000	0.600000	0.500000	0.500000	0.600000
	1	9000	0.600000	0.650000	0.650000	0.650000	0.600000	0.600000	0.600000	0.600000	0.600000	0.500000	0.500000	0.600000
	1	10110	0.600000	0.650000	0.650000	0.650000	0.600000	0.600000	0.600000	0.600000	0.600000	0.500000	0.500000	0.600000
	1	10120	0.600000	0.650000	0.650000	0.650000	0.600000	0.600000	0.600000	0.600000	0.600000	0.500000	0.500000	0.600000
	1	10130	0.600000	0.650000	0.650000	0.650000	0.600000	0.600000	0.600000	0.600000	0.600000	0.500000	0.500000	0.600000
	1	10210	0.600000	0.650000	0.650000	0.650000	0.600000	0.600000	0.600000	0.600000	0.600000	0.500000	0.500000	0.600000
	1	10220	0.600000	0.650000	0.650000	0.650000	0.600000	0.600000	0.600000	0.600000	0.600000	0.500000	0.500000	0.600000
	1	10230	0.600000	0.650000	0.650000	0.650000	0.600000	0.600000	0.600000	0.600000	0.600000	0.500000	0.500000	0.600000
	1	10310	0.600000	0.650000	0.650000	0.650000	0.600000	0.600000	0.600000	0.600000	0.600000	0.500000	0.500000	0.600000
	1	10320	0.600000	0.650000	0.650000	0.650000	0.600000	0.600000	0.600000	0.600000	0.600000	0.500000	0.500000	0.600000
	1	10330	0.600000	0.650000	0.650000	0.650000	0.600000	0.600000	0.600000	0.600000	0.600000	0.500000	0.500000	0.600000
	1	10410	0.600000	0.650000	0.650000	0.650000	0.600000	0.600000	0.600000	0.600000	0.600000	0.500000	0.500000	0.600000
	1	10420	0.600000	0.650000	0.650000	0.650000	0.600000	0.600000	0.600000	0.600000	0.600000	0.500000	0.500000	0.600000
	1	10430	0.600000	0.650000	0.650000	0.650000	0.600000	0.600000	0.600000	0.600000	0.600000	0.500000	0.500000	0.600000
c------------------------------------------------------------------------------------
c200 mon-lower zone evapotranspiration parameter (lzetpm)
c    only required if vlefg=1 in pwat-parm1 (see card 100)
c
c    defid   parameter group id
c    deluid  landuse id
c    jan-dec lower zone evapotranspiration parameter at start of each month (none)
c
c	defid	deluid	jan	feb	mar	apr	may	jun	jul	aug	sep	oct	nov	dec
	1	1000	0.000000	0.000000	0.000000	0.000000	0.000000	0.000000	0.000000	0.000000	0.000000	0.000000	0.000000	0.000000
	1	2110	0.812813	0.812813	0.812813	0.812813	0.859375	0.859375	0.859375	0.859375	0.859375	0.812813	0.812813	0.812813
	1	2120	0.812813	0.812813	0.812813	0.812813	0.859375	0.859375	0.859375	0.859375	0.859375	0.812813	0.812813	0.812813
	1	2130	0.812813	0.812813	0.812813	0.812813	0.859375	0.859375	0.859375	0.859375	0.859375	0.812813	0.812813	0.812813
	1	2210	0.812813	0.812813	0.812813	0.812813	0.859375	0.859375	0.859375	0.859375	0.859375	0.812813	0.812813	0.812813
	1	2220	0.812813	0.812813	0.812813	0.812813	0.859375	0.859375	0.859375	0.859375	0.859375	0.812813	0.812813	0.812813
	1	2230	0.812813	0.812813	0.812813	0.812813	0.859375	0.859375	0.859375	0.859375	0.859375	0.812813	0.812813	0.812813
	1	2310	0.812813	0.812813	0.812813	0.812813	0.859375	0.859375	0.859375	0.859375	0.859375	0.812813	0.812813	0.812813
	1	2320	0.812813	0.812813	0.812813	0.812813	0.859375	0.859375	0.859375	0.859375	0.859375	0.812813	0.812813	0.812813
	1	2330	0.812813	0.812813	0.812813	0.812813	0.859375	0.859375	0.859375	0.859375	0.859375	0.812813	0.812813	0.812813
	1	2410	0.812813	0.812813	0.812813	0.812813	0.859375	0.859375	0.859375	0.859375	0.859375	0.812813	0.812813	0.812813
	1	2420	0.812813	0.812813	0.812813	0.812813	0.859375	0.859375	0.859375	0.859375	0.859375	0.812813	0.812813	0.812813
	1	2430	0.812813	0.812813	0.812813	0.812813	0.859375	0.859375	0.859375	0.859375	0.859375	0.812813	0.812813	0.812813
	1	3110	0.650250	0.650250	0.650250	0.650250	0.687500	0.687500	0.687500	0.687500	0.687500	0.650250	0.650250	0.650250
	1	3120	0.650250	0.650250	0.650250	0.650250	0.687500	0.687500	0.687500	0.687500	0.687500	0.650250	0.650250	0.650250
	1	3130	0.650250	0.650250	0.650250	0.650250	0.687500	0.687500	0.687500	0.687500	0.687500	0.650250	0.650250	0.650250
	1	3210	0.650250	0.650250	0.650250	0.650250	0.687500	0.687500	0.687500	0.687500	0.687500	0.650250	0.650250	0.650250
	1	3220	0.650250	0.650250	0.650250	0.650250	0.687500	0.687500	0.687500	0.687500	0.687500	0.650250	0.650250	0.650250
	1	3230	0.650250	0.650250	0.650250	0.650250	0.687500	0.687500	0.687500	0.687500	0.687500	0.650250	0.650250	0.650250
	1	3310	0.650250	0.650250	0.650250	0.650250	0.687500	0.687500	0.687500	0.687500	0.687500	0.650250	0.650250	0.650250
	1	3320	0.650250	0.650250	0.650250	0.650250	0.687500	0.687500	0.687500	0.687500	0.687500	0.650250	0.650250	0.650250
	1	3330	0.650250	0.650250	0.650250	0.650250	0.687500	0.687500	0.687500	0.687500	0.687500	0.650250	0.650250	0.650250
	1	3410	0.650250	0.650250	0.650250	0.650250	0.687500	0.687500	0.687500	0.687500	0.687500	0.650250	0.650250	0.650250
	1	3420	0.650250	0.650250	0.650250	0.650250	0.687500	0.687500	0.687500	0.687500	0.687500	0.650250	0.650250	0.650250
	1	3430	0.650250	0.650250	0.650250	0.650250	0.687500	0.687500	0.687500	0.687500	0.687500	0.650250	0.650250	0.650250
	1	4110	0.832320	0.832320	0.832320	0.832320	0.880000	0.880000	0.880000	0.880000	0.880000	0.832320	0.832320	0.832320
	1	4120	0.832320	0.832320	0.832320	0.832320	0.880000	0.880000	0.880000	0.880000	0.880000	0.832320	0.832320	0.832320
	1	4130	0.832320	0.832320	0.832320	0.832320	0.880000	0.880000	0.880000	0.880000	0.880000	0.832320	0.832320	0.832320
	1	4210	0.832320	0.832320	0.832320	0.832320	0.880000	0.880000	0.880000	0.880000	0.880000	0.832320	0.832320	0.832320
	1	4220	0.832320	0.832320	0.832320	0.832320	0.880000	0.880000	0.880000	0.880000	0.880000	0.832320	0.832320	0.832320
	1	4230	0.832320	0.832320	0.832320	0.832320	0.880000	0.880000	0.880000	0.880000	0.880000	0.832320	0.832320	0.832320
	1	4310	0.832320	0.832320	0.832320	0.832320	0.880000	0.880000	0.880000	0.880000	0.880000	0.832320	0.832320	0.832320
	1	4320	0.832320	0.832320	0.832320	0.832320	0.880000	0.880000	0.880000	0.880000	0.880000	0.832320	0.832320	0.832320
	1	4330	0.832320	0.832320	0.832320	0.832320	0.880000	0.880000	0.880000	0.880000	0.880000	0.832320	0.832320	0.832320
	1	4410	0.832320	0.832320	0.832320	0.832320	0.880000	0.880000	0.880000	0.880000	0.880000	0.832320	0.832320	0.832320
	1	4420	0.832320	0.832320	0.832320	0.832320	0.880000	0.880000	0.880000	0.880000	0.880000	0.832320	0.832320	0.832320
	1	4430	0.832320	0.832320	0.832320	0.832320	0.880000	0.880000	0.880000	0.880000	0.880000	0.832320	0.832320	0.832320
	1	5110	0.650250	0.650250	0.650250	0.650250	0.687500	0.687500	0.687500	0.687500	0.687500	0.650250	0.650250	0.650250
	1	5120	0.650250	0.650250	0.650250	0.650250	0.687500	0.687500	0.687500	0.687500	0.687500	0.650250	0.650250	0.650250
	1	5130	0.650250	0.650250	0.650250	0.650250	0.687500	0.687500	0.687500	0.687500	0.687500	0.650250	0.650250	0.650250
	1	5210	0.650250	0.650250	0.650250	0.650250	0.687500	0.687500	0.687500	0.687500	0.687500	0.650250	0.650250	0.650250
	1	5220	0.650250	0.650250	0.650250	0.650250	0.687500	0.687500	0.687500	0.687500	0.687500	0.650250	0.650250	0.650250
	1	5230	0.650250	0.650250	0.650250	0.650250	0.687500	0.687500	0.687500	0.687500	0.687500	0.650250	0.650250	0.650250
	1	5310	0.650250	0.650250	0.650250	0.650250	0.687500	0.687500	0.687500	0.687500	0.687500	0.650250	0.650250	0.650250
	1	5320	0.650250	0.650250	0.650250	0.650250	0.687500	0.687500	0.687500	0.687500	0.687500	0.650250	0.650250	0.650250
	1	5330	0.650250	0.650250	0.650250	0.650250	0.687500	0.687500	0.687500	0.687500	0.687500	0.650250	0.650250	0.650250
	1	5410	0.650250	0.650250	0.650250	0.650250	0.687500	0.687500	0.687500	0.687500	0.687500	0.650250	0.650250	0.650250
	1	5420	0.650250	0.650250	0.650250	0.650250	0.687500	0.687500	0.687500	0.687500	0.687500	0.650250	0.650250	0.650250
	1	5430	0.650250	0.650250	0.650250	0.650250	0.687500	0.687500	0.687500	0.687500	0.687500	0.650250	0.650250	0.650250
	1	6110	0.650250	0.650250	0.650250	0.650250	0.687500	0.687500	0.687500	0.687500	0.687500	0.650250	0.650250	0.650250
	1	6120	0.650250	0.650250	0.650250	0.650250	0.687500	0.687500	0.687500	0.687500	0.687500	0.650250	0.650250	0.650250
	1	6130	0.650250	0.650250	0.650250	0.650250	0.687500	0.687500	0.687500	0.687500	0.687500	0.650250	0.650250	0.650250
	1	6210	0.650250	0.650250	0.650250	0.650250	0.687500	0.687500	0.687500	0.687500	0.687500	0.650250	0.650250	0.650250
	1	6220	0.650250	0.650250	0.650250	0.650250	0.687500	0.687500	0.687500	0.687500	0.687500	0.650250	0.650250	0.650250
	1	6230	0.650250	0.650250	0.650250	0.650250	0.687500	0.687500	0.687500	0.687500	0.687500	0.650250	0.650250	0.650250
	1	6310	0.650250	0.650250	0.650250	0.650250	0.687500	0.687500	0.687500	0.687500	0.687500	0.650250	0.650250	0.650250
	1	6320	0.650250	0.650250	0.650250	0.650250	0.687500	0.687500	0.687500	0.687500	0.687500	0.650250	0.650250	0.650250
	1	6330	0.650250	0.650250	0.650250	0.650250	0.687500	0.687500	0.687500	0.687500	0.687500	0.650250	0.650250	0.650250
	1	6410	0.650250	0.650250	0.650250	0.650250	0.687500	0.687500	0.687500	0.687500	0.687500	0.650250	0.650250	0.650250
	1	6420	0.650250	0.650250	0.650250	0.650250	0.687500	0.687500	0.687500	0.687500	0.687500	0.650250	0.650250	0.650250
	1	6430	0.650250	0.650250	0.650250	0.650250	0.687500	0.687500	0.687500	0.687500	0.687500	0.650250	0.650250	0.650250
	1	7110	0.812813	0.812813	0.812813	0.812813	0.859375	0.859375	0.859375	0.859375	0.859375	0.812813	0.812813	0.812813
	1	7120	0.812813	0.812813	0.812813	0.812813	0.859375	0.859375	0.859375	0.859375	0.859375	0.812813	0.812813	0.812813
	1	7130	0.812813	0.812813	0.812813	0.812813	0.859375	0.859375	0.859375	0.859375	0.859375	0.812813	0.812813	0.812813
	1	7210	0.812813	0.812813	0.812813	0.812813	0.859375	0.859375	0.859375	0.859375	0.859375	0.812813	0.812813	0.812813
	1	7220	0.812813	0.812813	0.812813	0.812813	0.859375	0.859375	0.859375	0.859375	0.859375	0.812813	0.812813	0.812813
	1	7230	0.812813	0.812813	0.812813	0.812813	0.859375	0.859375	0.859375	0.859375	0.859375	0.812813	0.812813	0.812813
	1	7310	0.812813	0.812813	0.812813	0.812813	0.859375	0.859375	0.859375	0.859375	0.859375	0.812813	0.812813	0.812813
	1	7320	0.812813	0.812813	0.812813	0.812813	0.859375	0.859375	0.859375	0.859375	0.859375	0.812813	0.812813	0.812813
	1	7330	0.812813	0.812813	0.812813	0.812813	0.859375	0.859375	0.859375	0.859375	0.859375	0.812813	0.812813	0.812813
	1	7410	0.812813	0.812813	0.812813	0.812813	0.859375	0.859375	0.859375	0.859375	0.859375	0.812813	0.812813	0.812813
	1	7420	0.812813	0.812813	0.812813	0.812813	0.859375	0.859375	0.859375	0.859375	0.859375	0.812813	0.812813	0.812813
	1	7430	0.812813	0.812813	0.812813	0.812813	0.859375	0.859375	0.859375	0.859375	0.859375	0.812813	0.812813	0.812813
	1	8110	0.812813	0.812813	0.812813	0.812813	0.859375	0.859375	0.859375	0.859375	0.859375	0.812813	0.812813	0.812813
	1	8120	0.812813	0.812813	0.812813	0.812813	0.859375	0.859375	0.859375	0.859375	0.859375	0.812813	0.812813	0.812813
	1	8130	0.812813	0.812813	0.812813	0.812813	0.859375	0.859375	0.859375	0.859375	0.859375	0.812813	0.812813	0.812813
	1	8210	0.812813	0.812813	0.812813	0.812813	0.859375	0.859375	0.859375	0.859375	0.859375	0.812813	0.812813	0.812813
	1	8220	0.812813	0.812813	0.812813	0.812813	0.859375	0.859375	0.859375	0.859375	0.859375	0.812813	0.812813	0.812813
	1	8230	0.812813	0.812813	0.812813	0.812813	0.859375	0.859375	0.859375	0.859375	0.859375	0.812813	0.812813	0.812813
	1	8310	0.812813	0.812813	0.812813	0.812813	0.859375	0.859375	0.859375	0.859375	0.859375	0.812813	0.812813	0.812813
	1	8320	0.812813	0.812813	0.812813	0.812813	0.859375	0.859375	0.859375	0.859375	0.859375	0.812813	0.812813	0.812813
	1	8330	0.812813	0.812813	0.812813	0.812813	0.859375	0.859375	0.859375	0.859375	0.859375	0.812813	0.812813	0.812813
	1	8410	0.812813	0.812813	0.812813	0.812813	0.859375	0.859375	0.859375	0.859375	0.859375	0.812813	0.812813	0.812813
	1	8420	0.812813	0.812813	0.812813	0.812813	0.859375	0.859375	0.859375	0.859375	0.859375	0.812813	0.812813	0.812813
	1	8430	0.812813	0.812813	0.812813	0.812813	0.859375	0.859375	0.859375	0.859375	0.859375	0.812813	0.812813	0.812813
	1	9000	0.812813	0.812813	0.812813	0.812813	0.859375	0.859375	0.859375	0.859375	0.859375	0.812813	0.812813	0.812813
	1	10110	0.812813	0.812813	0.812813	0.812813	0.859375	0.859375	0.859375	0.859375	0.859375	0.812813	0.812813	0.812813
	1	10120	0.812813	0.812813	0.812813	0.812813	0.859375	0.859375	0.859375	0.859375	0.859375	0.812813	0.812813	0.812813
	1	10130	0.812813	0.812813	0.812813	0.812813	0.859375	0.859375	0.859375	0.859375	0.859375	0.812813	0.812813	0.812813
	1	10210	0.812813	0.812813	0.812813	0.812813	0.859375	0.859375	0.859375	0.859375	0.859375	0.812813	0.812813	0.812813
	1	10220	0.812813	0.812813	0.812813	0.812813	0.859375	0.859375	0.859375	0.859375	0.859375	0.812813	0.812813	0.812813
	1	10230	0.812813	0.812813	0.812813	0.812813	0.859375	0.859375	0.859375	0.859375	0.859375	0.812813	0.812813	0.812813
	1	10310	0.812813	0.812813	0.812813	0.812813	0.859375	0.859375	0.859375	0.859375	0.859375	0.812813	0.812813	0.812813
	1	10320	0.812813	0.812813	0.812813	0.812813	0.859375	0.859375	0.859375	0.859375	0.859375	0.812813	0.812813	0.812813
	1	10330	0.812813	0.812813	0.812813	0.812813	0.859375	0.859375	0.859375	0.859375	0.859375	0.812813	0.812813	0.812813
	1	10410	0.812813	0.812813	0.812813	0.812813	0.859375	0.859375	0.859375	0.859375	0.859375	0.812813	0.812813	0.812813
	1	10420	0.812813	0.812813	0.812813	0.812813	0.859375	0.859375	0.859375	0.859375	0.859375	0.812813	0.812813	0.812813
	1	10430	0.812813	0.812813	0.812813	0.812813	0.859375	0.859375	0.859375	0.859375	0.859375	0.812813	0.812813	0.812813
c------------------------------------------------------------------------------------
c201   Irrigation Application Option Flags
cIrrigation flag decide whether to run irrigation
c
c    irrigfg   if = 1 run irrigation option
c    petfg     if = 1 use constant PET rather than time series from the air file
c    monVaryIrrig   if = 1 use monthly varying ET coefficient
c
c	irrigfg	petfg	monVaryIrrig
	0	0	1
c-----------------------------------------------------------------------------------------
c202 Irrigation PET Value
c   defid        Group ID number.
c   petval       Constant PET value to calculate actual ET (in/hr)
c
c	defid	petval
c--------------------------------------------------------------------------------------------
c203 Irrigation Application Options
c   defid        Group ID number.
c   deluid       Landuse ID number
c   startmonth   startmonth of irrigation requirement
c   endmonth     endmonth of irrigation requirement
c   fraction1    fraction of irrigation requirement applied over the canopy.
c   fraction2    fraction of irrigation water applied directly to the soil surface.
c   fraction3    fraction of irrigation water applied to the upper soil zone via buried systems
c   fraction4    fraction of irrigation water likewise applied to the lower soil zone.
c   fraction5    fraction of irrigation water entering directly into the local groundwater, such as seepage irrigation.
c   etcoeff      Coefficient to calculate actual ET, based on PET.
c   etdays       Number of threshold days to calculate irrigation demand (pet*etcoeff - precip)
c                (if etdays = 0 then irrigation demand = pet * etcoeff)
c   source       irrigation water source flag (value of 0 or 1)
c                0=etdemand is satisfied from an external source regardless of source rchid specified in card 205 
c                1=water is withdrawn from source rchid specified in card 205 
c                etdemand is satisfied from an external source if there is no source rchid specified in card 205
c
c	defid	deluid	startmonth	endmonth	fraction1	fraction2	fraction3	fraction4	fraction5	etcoeff	etdays	source
	1	1000	1	12	0.500000	0.500000	0.000000	0.000000	0.000000	0.000000	0	0
	1	2110	1	12	0.500000	0.500000	0.000000	0.000000	0.000000	0.000000	0	0
	1	2120	1	12	0.500000	0.500000	0.000000	0.000000	0.000000	0.000000	0	0
	1	2130	1	12	0.500000	0.500000	0.000000	0.000000	0.000000	0.000000	0	0
	1	2210	1	12	0.500000	0.500000	0.000000	0.000000	0.000000	0.000000	0	0
	1	2220	1	12	0.500000	0.500000	0.000000	0.000000	0.000000	0.000000	0	0
	1	2230	1	12	0.500000	0.500000	0.000000	0.000000	0.000000	0.000000	0	0
	1	2310	1	12	0.500000	0.500000	0.000000	0.000000	0.000000	0.000000	0	0
	1	2320	1	12	0.500000	0.500000	0.000000	0.000000	0.000000	0.000000	0	0
	1	2330	1	12	0.500000	0.500000	0.000000	0.000000	0.000000	0.000000	0	0
	1	2410	1	12	0.500000	0.500000	0.000000	0.000000	0.000000	0.000000	0	0
	1	2420	1	12	0.500000	0.500000	0.000000	0.000000	0.000000	0.000000	0	0
	1	2430	1	12	0.500000	0.500000	0.000000	0.000000	0.000000	0.000000	0	0
	1	3110	1	12	0.500000	0.500000	0.000000	0.000000	0.000000	0.000000	0	0
	1	3120	1	12	0.500000	0.500000	0.000000	0.000000	0.000000	0.000000	0	0
	1	3130	1	12	0.500000	0.500000	0.000000	0.000000	0.000000	0.000000	0	0
	1	3210	1	12	0.500000	0.500000	0.000000	0.000000	0.000000	0.000000	0	0
	1	3220	1	12	0.500000	0.500000	0.000000	0.000000	0.000000	0.000000	0	0
	1	3230	1	12	0.500000	0.500000	0.000000	0.000000	0.000000	0.000000	0	0
	1	3310	1	12	0.500000	0.500000	0.000000	0.000000	0.000000	0.000000	0	0
	1	3320	1	12	0.500000	0.500000	0.000000	0.000000	0.000000	0.000000	0	0
	1	3330	1	12	0.500000	0.500000	0.000000	0.000000	0.000000	0.000000	0	0
	1	3410	1	12	0.500000	0.500000	0.000000	0.000000	0.000000	0.000000	0	0
	1	3420	1	12	0.500000	0.500000	0.000000	0.000000	0.000000	0.000000	0	0
	1	3430	1	12	0.500000	0.500000	0.000000	0.000000	0.000000	0.000000	0	0
	1	4110	1	12	0.500000	0.500000	0.000000	0.000000	0.000000	0.000000	0	0
	1	4120	1	12	0.500000	0.500000	0.000000	0.000000	0.000000	0.000000	0	0
	1	4130	1	12	0.500000	0.500000	0.000000	0.000000	0.000000	0.000000	0	0
	1	4210	1	12	0.500000	0.500000	0.000000	0.000000	0.000000	0.000000	0	0
	1	4220	1	12	0.500000	0.500000	0.000000	0.000000	0.000000	0.000000	0	0
	1	4230	1	12	0.500000	0.500000	0.000000	0.000000	0.000000	0.000000	0	0
	1	4310	1	12	0.500000	0.500000	0.000000	0.000000	0.000000	0.000000	0	0
	1	4320	1	12	0.500000	0.500000	0.000000	0.000000	0.000000	0.000000	0	0
	1	4330	1	12	0.500000	0.500000	0.000000	0.000000	0.000000	0.000000	0	0
	1	4410	1	12	0.500000	0.500000	0.000000	0.000000	0.000000	0.000000	0	0
	1	4420	1	12	0.500000	0.500000	0.000000	0.000000	0.000000	0.000000	0	0
	1	4430	1	12	0.500000	0.500000	0.000000	0.000000	0.000000	0.000000	0	0
	1	5110	1	12	0.500000	0.500000	0.000000	0.000000	0.000000	0.000000	0	0
	1	5120	1	12	0.500000	0.500000	0.000000	0.000000	0.000000	0.000000	0	0
	1	5130	1	12	0.500000	0.500000	0.000000	0.000000	0.000000	0.000000	0	0
	1	5210	1	12	0.500000	0.500000	0.000000	0.000000	0.000000	0.000000	0	0
	1	5220	1	12	0.500000	0.500000	0.000000	0.000000	0.000000	0.000000	0	0
	1	5230	1	12	0.500000	0.500000	0.000000	0.000000	0.000000	0.000000	0	0
	1	5310	1	12	0.500000	0.500000	0.000000	0.000000	0.000000	0.000000	0	0
	1	5320	1	12	0.500000	0.500000	0.000000	0.000000	0.000000	0.000000	0	0
	1	5330	1	12	0.500000	0.500000	0.000000	0.000000	0.000000	0.000000	0	0
	1	5410	1	12	0.500000	0.500000	0.000000	0.000000	0.000000	0.000000	0	0
	1	5420	1	12	0.500000	0.500000	0.000000	0.000000	0.000000	0.000000	0	0
	1	5430	1	12	0.500000	0.500000	0.000000	0.000000	0.000000	0.000000	0	0
	1	6110	1	12	0.500000	0.500000	0.000000	0.000000	0.000000	0.000000	0	0
	1	6120	1	12	0.500000	0.500000	0.000000	0.000000	0.000000	0.000000	0	0
	1	6130	1	12	0.500000	0.500000	0.000000	0.000000	0.000000	0.000000	0	0
	1	6210	1	12	0.500000	0.500000	0.000000	0.000000	0.000000	0.000000	0	0
	1	6220	1	12	0.500000	0.500000	0.000000	0.000000	0.000000	0.000000	0	0
	1	6230	1	12	0.500000	0.500000	0.000000	0.000000	0.000000	0.000000	0	0
	1	6310	1	12	0.500000	0.500000	0.000000	0.000000	0.000000	0.000000	0	0
	1	6320	1	12	0.500000	0.500000	0.000000	0.000000	0.000000	0.000000	0	0
	1	6330	1	12	0.500000	0.500000	0.000000	0.000000	0.000000	0.000000	0	0
	1	6410	1	12	0.500000	0.500000	0.000000	0.000000	0.000000	0.000000	0	0
	1	6420	1	12	0.500000	0.500000	0.000000	0.000000	0.000000	0.000000	0	0
	1	6430	1	12	0.500000	0.500000	0.000000	0.000000	0.000000	0.000000	0	0
	1	7110	1	12	0.500000	0.500000	0.000000	0.000000	0.000000	0.000000	0	0
	1	7120	1	12	0.500000	0.500000	0.000000	0.000000	0.000000	0.000000	0	0
	1	7130	1	12	0.500000	0.500000	0.000000	0.000000	0.000000	0.000000	0	0
	1	7210	1	12	0.500000	0.500000	0.000000	0.000000	0.000000	0.000000	0	0
	1	7220	1	12	0.500000	0.500000	0.000000	0.000000	0.000000	0.000000	0	0
	1	7230	1	12	0.500000	0.500000	0.000000	0.000000	0.000000	0.000000	0	0
	1	7310	1	12	0.500000	0.500000	0.000000	0.000000	0.000000	0.000000	0	0
	1	7320	1	12	0.500000	0.500000	0.000000	0.000000	0.000000	0.000000	0	0
	1	7330	1	12	0.500000	0.500000	0.000000	0.000000	0.000000	0.000000	0	0
	1	7410	1	12	0.500000	0.500000	0.000000	0.000000	0.000000	0.000000	0	0
	1	7420	1	12	0.500000	0.500000	0.000000	0.000000	0.000000	0.000000	0	0
	1	7430	1	12	0.500000	0.500000	0.000000	0.000000	0.000000	0.000000	0	0
	1	8110	1	12	0.500000	0.500000	0.000000	0.000000	0.000000	0.000000	0	0
	1	8120	1	12	0.500000	0.500000	0.000000	0.000000	0.000000	0.000000	0	0
	1	8130	1	12	0.500000	0.500000	0.000000	0.000000	0.000000	0.000000	0	0
	1	8210	1	12	0.500000	0.500000	0.000000	0.000000	0.000000	0.000000	0	0
	1	8220	1	12	0.500000	0.500000	0.000000	0.000000	0.000000	0.000000	0	0
	1	8230	1	12	0.500000	0.500000	0.000000	0.000000	0.000000	0.000000	0	0
	1	8310	1	12	0.500000	0.500000	0.000000	0.000000	0.000000	0.000000	0	0
	1	8320	1	12	0.500000	0.500000	0.000000	0.000000	0.000000	0.000000	0	0
	1	8330	1	12	0.500000	0.500000	0.000000	0.000000	0.000000	0.000000	0	0
	1	8410	1	12	0.500000	0.500000	0.000000	0.000000	0.000000	0.000000	0	0
	1	8420	1	12	0.500000	0.500000	0.000000	0.000000	0.000000	0.000000	0	0
	1	8430	1	12	0.500000	0.500000	0.000000	0.000000	0.000000	0.000000	0	0
	1	9000	1	12	0.500000	0.500000	0.000000	0.000000	0.000000	0.000000	0	0
	1	10110	1	12	0.500000	0.500000	0.000000	0.000000	0.000000	0.390000	0	0
	1	10120	1	12	0.500000	0.500000	0.000000	0.000000	0.000000	0.390000	0	0
	1	10130	1	12	0.500000	0.500000	0.000000	0.000000	0.000000	0.390000	0	0
	1	10210	1	12	0.500000	0.500000	0.000000	0.000000	0.000000	0.390000	0	0
	1	10220	1	12	0.500000	0.500000	0.000000	0.000000	0.000000	0.390000	0	0
	1	10230	1	12	0.500000	0.500000	0.000000	0.000000	0.000000	0.390000	0	0
	1	10310	1	12	0.500000	0.500000	0.000000	0.000000	0.000000	0.390000	0	0
	1	10320	1	12	0.500000	0.500000	0.000000	0.000000	0.000000	0.390000	0	0
	1	10330	1	12	0.500000	0.500000	0.000000	0.000000	0.000000	0.390000	0	0
	1	10410	1	12	0.500000	0.500000	0.000000	0.000000	0.000000	0.390000	0	0
	1	10420	1	12	0.500000	0.500000	0.000000	0.000000	0.000000	0.390000	0	0
	1	10430	1	12	0.500000	0.500000	0.000000	0.000000	0.000000	0.390000	0	0
c--------------------------------------------------------------------------------------------
c204 Monthly-variable ET coefficients
c   defid        Group ID number.
c   deluid       Landuse ID number
c   monetcs      Monthly-variable coefficient to calculate actual ET for Jan..Dec
c
c	defid	deluid	monETCs1	monETCs2	monETCs3	monETCs4	monETCs5	monETCs6	monETCs7	monETCs8	monETCs9	monETCs10	monETCs11	monETCs12
	1	1000	0.000000	0.000000	0.000000	0.000000	0.000000	0.000000	0.000000	0.000000	0.000000	0.000000	0.000000	0.000000
	1	2110	0.000000	0.000000	0.000000	0.000000	0.000000	0.000000	0.000000	0.000000	0.000000	0.000000	0.000000	0.000000
	1	2120	0.000000	0.000000	0.000000	0.000000	0.000000	0.000000	0.000000	0.000000	0.000000	0.000000	0.000000	0.000000
	1	2130	0.000000	0.000000	0.000000	0.000000	0.000000	0.000000	0.000000	0.000000	0.000000	0.000000	0.000000	0.000000
	1	2210	0.000000	0.000000	0.000000	0.000000	0.000000	0.000000	0.000000	0.000000	0.000000	0.000000	0.000000	0.000000
	1	2220	0.000000	0.000000	0.000000	0.000000	0.000000	0.000000	0.000000	0.000000	0.000000	0.000000	0.000000	0.000000
	1	2230	0.000000	0.000000	0.000000	0.000000	0.000000	0.000000	0.000000	0.000000	0.000000	0.000000	0.000000	0.000000
	1	2310	0.000000	0.000000	0.000000	0.000000	0.000000	0.000000	0.000000	0.000000	0.000000	0.000000	0.000000	0.000000
	1	2320	0.000000	0.000000	0.000000	0.000000	0.000000	0.000000	0.000000	0.000000	0.000000	0.000000	0.000000	0.000000
	1	2330	0.000000	0.000000	0.000000	0.000000	0.000000	0.000000	0.000000	0.000000	0.000000	0.000000	0.000000	0.000000
	1	2410	0.000000	0.000000	0.000000	0.000000	0.000000	0.000000	0.000000	0.000000	0.000000	0.000000	0.000000	0.000000
	1	2420	0.000000	0.000000	0.000000	0.000000	0.000000	0.000000	0.000000	0.000000	0.000000	0.000000	0.000000	0.000000
	1	2430	0.000000	0.000000	0.000000	0.000000	0.000000	0.000000	0.000000	0.000000	0.000000	0.000000	0.000000	0.000000
	1	3110	0.000000	0.000000	0.000000	0.000000	0.000000	0.000000	0.000000	0.000000	0.000000	0.000000	0.000000	0.000000
	1	3120	0.000000	0.000000	0.000000	0.000000	0.000000	0.000000	0.000000	0.000000	0.000000	0.000000	0.000000	0.000000
	1	3130	0.000000	0.000000	0.000000	0.000000	0.000000	0.000000	0.000000	0.000000	0.000000	0.000000	0.000000	0.000000
	1	3210	0.000000	0.000000	0.000000	0.000000	0.000000	0.000000	0.000000	0.000000	0.000000	0.000000	0.000000	0.000000
	1	3220	0.000000	0.000000	0.000000	0.000000	0.000000	0.000000	0.000000	0.000000	0.000000	0.000000	0.000000	0.000000
	1	3230	0.000000	0.000000	0.000000	0.000000	0.000000	0.000000	0.000000	0.000000	0.000000	0.000000	0.000000	0.000000
	1	3310	0.000000	0.000000	0.000000	0.000000	0.000000	0.000000	0.000000	0.000000	0.000000	0.000000	0.000000	0.000000
	1	3320	0.000000	0.000000	0.000000	0.000000	0.000000	0.000000	0.000000	0.000000	0.000000	0.000000	0.000000	0.000000
	1	3330	0.000000	0.000000	0.000000	0.000000	0.000000	0.000000	0.000000	0.000000	0.000000	0.000000	0.000000	0.000000
	1	3410	0.000000	0.000000	0.000000	0.000000	0.000000	0.000000	0.000000	0.000000	0.000000	0.000000	0.000000	0.000000
	1	3420	0.000000	0.000000	0.000000	0.000000	0.000000	0.000000	0.000000	0.000000	0.000000	0.000000	0.000000	0.000000
	1	3430	0.000000	0.000000	0.000000	0.000000	0.000000	0.000000	0.000000	0.000000	0.000000	0.000000	0.000000	0.000000
	1	4110	0.000000	0.000000	0.000000	0.000000	0.000000	0.000000	0.000000	0.000000	0.000000	0.000000	0.000000	0.000000
	1	4120	0.000000	0.000000	0.000000	0.000000	0.000000	0.000000	0.000000	0.000000	0.000000	0.000000	0.000000	0.000000
	1	4130	0.000000	0.000000	0.000000	0.000000	0.000000	0.000000	0.000000	0.000000	0.000000	0.000000	0.000000	0.000000
	1	4210	0.000000	0.000000	0.000000	0.000000	0.000000	0.000000	0.000000	0.000000	0.000000	0.000000	0.000000	0.000000
	1	4220	0.000000	0.000000	0.000000	0.000000	0.000000	0.000000	0.000000	0.000000	0.000000	0.000000	0.000000	0.000000
	1	4230	0.000000	0.000000	0.000000	0.000000	0.000000	0.000000	0.000000	0.000000	0.000000	0.000000	0.000000	0.000000
	1	4310	0.000000	0.000000	0.000000	0.000000	0.000000	0.000000	0.000000	0.000000	0.000000	0.000000	0.000000	0.000000
	1	4320	0.000000	0.000000	0.000000	0.000000	0.000000	0.000000	0.000000	0.000000	0.000000	0.000000	0.000000	0.000000
	1	4330	0.000000	0.000000	0.000000	0.000000	0.000000	0.000000	0.000000	0.000000	0.000000	0.000000	0.000000	0.000000
	1	4410	0.000000	0.000000	0.000000	0.000000	0.000000	0.000000	0.000000	0.000000	0.000000	0.000000	0.000000	0.000000
	1	4420	0.000000	0.000000	0.000000	0.000000	0.000000	0.000000	0.000000	0.000000	0.000000	0.000000	0.000000	0.000000
	1	4430	0.000000	0.000000	0.000000	0.000000	0.000000	0.000000	0.000000	0.000000	0.000000	0.000000	0.000000	0.000000
	1	5110	0.000000	0.000000	0.000000	0.000000	0.000000	0.000000	0.000000	0.000000	0.000000	0.000000	0.000000	0.000000
	1	5120	0.000000	0.000000	0.000000	0.000000	0.000000	0.000000	0.000000	0.000000	0.000000	0.000000	0.000000	0.000000
	1	5130	0.000000	0.000000	0.000000	0.000000	0.000000	0.000000	0.000000	0.000000	0.000000	0.000000	0.000000	0.000000
	1	5210	0.000000	0.000000	0.000000	0.000000	0.000000	0.000000	0.000000	0.000000	0.000000	0.000000	0.000000	0.000000
	1	5220	0.000000	0.000000	0.000000	0.000000	0.000000	0.000000	0.000000	0.000000	0.000000	0.000000	0.000000	0.000000
	1	5230	0.000000	0.000000	0.000000	0.000000	0.000000	0.000000	0.000000	0.000000	0.000000	0.000000	0.000000	0.000000
	1	5310	0.000000	0.000000	0.000000	0.000000	0.000000	0.000000	0.000000	0.000000	0.000000	0.000000	0.000000	0.000000
	1	5320	0.000000	0.000000	0.000000	0.000000	0.000000	0.000000	0.000000	0.000000	0.000000	0.000000	0.000000	0.000000
	1	5330	0.000000	0.000000	0.000000	0.000000	0.000000	0.000000	0.000000	0.000000	0.000000	0.000000	0.000000	0.000000
	1	5410	0.000000	0.000000	0.000000	0.000000	0.000000	0.000000	0.000000	0.000000	0.000000	0.000000	0.000000	0.000000
	1	5420	0.000000	0.000000	0.000000	0.000000	0.000000	0.000000	0.000000	0.000000	0.000000	0.000000	0.000000	0.000000
	1	5430	0.000000	0.000000	0.000000	0.000000	0.000000	0.000000	0.000000	0.000000	0.000000	0.000000	0.000000	0.000000
	1	6110	0.000000	0.000000	0.000000	0.000000	0.000000	0.000000	0.000000	0.000000	0.000000	0.000000	0.000000	0.000000
	1	6120	0.000000	0.000000	0.000000	0.000000	0.000000	0.000000	0.000000	0.000000	0.000000	0.000000	0.000000	0.000000
	1	6130	0.000000	0.000000	0.000000	0.000000	0.000000	0.000000	0.000000	0.000000	0.000000	0.000000	0.000000	0.000000
	1	6210	0.000000	0.000000	0.000000	0.000000	0.000000	0.000000	0.000000	0.000000	0.000000	0.000000	0.000000	0.000000
	1	6220	0.000000	0.000000	0.000000	0.000000	0.000000	0.000000	0.000000	0.000000	0.000000	0.000000	0.000000	0.000000
	1	6230	0.000000	0.000000	0.000000	0.000000	0.000000	0.000000	0.000000	0.000000	0.000000	0.000000	0.000000	0.000000
	1	6310	0.000000	0.000000	0.000000	0.000000	0.000000	0.000000	0.000000	0.000000	0.000000	0.000000	0.000000	0.000000
	1	6320	0.000000	0.000000	0.000000	0.000000	0.000000	0.000000	0.000000	0.000000	0.000000	0.000000	0.000000	0.000000
	1	6330	0.000000	0.000000	0.000000	0.000000	0.000000	0.000000	0.000000	0.000000	0.000000	0.000000	0.000000	0.000000
	1	6410	0.000000	0.000000	0.000000	0.000000	0.000000	0.000000	0.000000	0.000000	0.000000	0.000000	0.000000	0.000000
	1	6420	0.000000	0.000000	0.000000	0.000000	0.000000	0.000000	0.000000	0.000000	0.000000	0.000000	0.000000	0.000000
	1	6430	0.000000	0.000000	0.000000	0.000000	0.000000	0.000000	0.000000	0.000000	0.000000	0.000000	0.000000	0.000000
	1	7110	0.000000	0.000000	0.000000	0.000000	0.000000	0.000000	0.000000	0.000000	0.000000	0.000000	0.000000	0.000000
	1	7120	0.000000	0.000000	0.000000	0.000000	0.000000	0.000000	0.000000	0.000000	0.000000	0.000000	0.000000	0.000000
	1	7130	0.000000	0.000000	0.000000	0.000000	0.000000	0.000000	0.000000	0.000000	0.000000	0.000000	0.000000	0.000000
	1	7210	0.000000	0.000000	0.000000	0.000000	0.000000	0.000000	0.000000	0.000000	0.000000	0.000000	0.000000	0.000000
	1	7220	0.000000	0.000000	0.000000	0.000000	0.000000	0.000000	0.000000	0.000000	0.000000	0.000000	0.000000	0.000000
	1	7230	0.000000	0.000000	0.000000	0.000000	0.000000	0.000000	0.000000	0.000000	0.000000	0.000000	0.000000	0.000000
	1	7310	0.000000	0.000000	0.000000	0.000000	0.000000	0.000000	0.000000	0.000000	0.000000	0.000000	0.000000	0.000000
	1	7320	0.000000	0.000000	0.000000	0.000000	0.000000	0.000000	0.000000	0.000000	0.000000	0.000000	0.000000	0.000000
	1	7330	0.000000	0.000000	0.000000	0.000000	0.000000	0.000000	0.000000	0.000000	0.000000	0.000000	0.000000	0.000000
	1	7410	0.000000	0.000000	0.000000	0.000000	0.000000	0.000000	0.000000	0.000000	0.000000	0.000000	0.000000	0.000000
	1	7420	0.000000	0.000000	0.000000	0.000000	0.000000	0.000000	0.000000	0.000000	0.000000	0.000000	0.000000	0.000000
	1	7430	0.000000	0.000000	0.000000	0.000000	0.000000	0.000000	0.000000	0.000000	0.000000	0.000000	0.000000	0.000000
	1	8110	0.000000	0.000000	0.000000	0.000000	0.000000	0.000000	0.000000	0.000000	0.000000	0.000000	0.000000	0.000000
	1	8120	0.000000	0.000000	0.000000	0.000000	0.000000	0.000000	0.000000	0.000000	0.000000	0.000000	0.000000	0.000000
	1	8130	0.000000	0.000000	0.000000	0.000000	0.000000	0.000000	0.000000	0.000000	0.000000	0.000000	0.000000	0.000000
	1	8210	0.000000	0.000000	0.000000	0.000000	0.000000	0.000000	0.000000	0.000000	0.000000	0.000000	0.000000	0.000000
	1	8220	0.000000	0.000000	0.000000	0.000000	0.000000	0.000000	0.000000	0.000000	0.000000	0.000000	0.000000	0.000000
	1	8230	0.000000	0.000000	0.000000	0.000000	0.000000	0.000000	0.000000	0.000000	0.000000	0.000000	0.000000	0.000000
	1	8310	0.000000	0.000000	0.000000	0.000000	0.000000	0.000000	0.000000	0.000000	0.000000	0.000000	0.000000	0.000000
	1	8320	0.000000	0.000000	0.000000	0.000000	0.000000	0.000000	0.000000	0.000000	0.000000	0.000000	0.000000	0.000000
	1	8330	0.000000	0.000000	0.000000	0.000000	0.000000	0.000000	0.000000	0.000000	0.000000	0.000000	0.000000	0.000000
	1	8410	0.000000	0.000000	0.000000	0.000000	0.000000	0.000000	0.000000	0.000000	0.000000	0.000000	0.000000	0.000000
	1	8420	0.000000	0.000000	0.000000	0.000000	0.000000	0.000000	0.000000	0.000000	0.000000	0.000000	0.000000	0.000000
	1	8430	0.000000	0.000000	0.000000	0.000000	0.000000	0.000000	0.000000	0.000000	0.000000	0.000000	0.000000	0.000000
	1	9000	0.000000	0.000000	0.000000	0.000000	0.000000	0.000000	0.000000	0.000000	0.000000	0.000000	0.000000	0.000000
	1	10110	0.678000	0.159600	0.126000	0.170400	0.322800	0.447600	0.524400	0.535200	0.507600	0.522000	0.416400	0.555600
	1	10120	0.678000	0.159600	0.126000	0.170400	0.322800	0.447600	0.524400	0.535200	0.507600	0.522000	0.416400	0.555600
	1	10130	0.678000	0.159600	0.126000	0.170400	0.322800	0.447600	0.524400	0.535200	0.507600	0.522000	0.416400	0.555600
	1	10210	0.678000	0.159600	0.126000	0.170400	0.322800	0.447600	0.524400	0.535200	0.507600	0.522000	0.416400	0.555600
	1	10220	0.678000	0.159600	0.126000	0.170400	0.322800	0.447600	0.524400	0.535200	0.507600	0.522000	0.416400	0.555600
	1	10230	0.678000	0.159600	0.126000	0.170400	0.322800	0.447600	0.524400	0.535200	0.507600	0.522000	0.416400	0.555600
	1	10310	0.678000	0.159600	0.126000	0.170400	0.322800	0.447600	0.524400	0.535200	0.507600	0.522000	0.416400	0.555600
	1	10320	0.678000	0.159600	0.126000	0.170400	0.322800	0.447600	0.524400	0.535200	0.507600	0.522000	0.416400	0.555600
	1	10330	0.678000	0.159600	0.126000	0.170400	0.322800	0.447600	0.524400	0.535200	0.507600	0.522000	0.416400	0.555600
	1	10410	0.678000	0.159600	0.126000	0.170400	0.322800	0.447600	0.524400	0.535200	0.507600	0.522000	0.416400	0.555600
	1	10420	0.678000	0.159600	0.126000	0.170400	0.322800	0.447600	0.524400	0.535200	0.507600	0.522000	0.416400	0.555600
	1	10430	0.678000	0.159600	0.126000	0.170400	0.322800	0.447600	0.524400	0.535200	0.507600	0.522000	0.416400	0.555600
c--------------------------------------------------------------------------------------------
c205 Irrigation Withdrawal Options
c Irrigation withdrawal information for each watershed
c    subbasin    subbasin id
c    rchid       reach id from where water is withdrawn 
c                (if reach does not exist then etdemand is assumed to be satisfied from an external source)
c    irrigdep    depth of irrigation withdrawal pipe (ft)
c
c	subbasin	rchid	irrigdep
	3879534	0	0.000000
	3879536	0	0.000000
	3879552	0	0.000000
	3879554	0	0.000000
	3879556	0	0.000000
	3879558	0	0.000000
	3879560	0	0.000000
	3879562	0	0.000000
	3879564	0	0.000000
	3879566	0	0.000000
	3879568	0	0.000000
	3879720	0	0.000000
	3879750	0	0.000000
	3879966	0	0.000000
	3879968	0	0.000000
	3879970	0	0.000000
	3879972	0	0.000000
	3879974	0	0.000000
	3879976	0	0.000000
	3879978	0	0.000000
	3879980	0	0.000000
	3879982	0	0.000000
	3879984	0	0.000000
	3879986	0	0.000000
	3879988	0	0.000000
	3879990	0	0.000000
	3879994	0	0.000000
	3880284	0	0.000000
	8889992	0	0.000000
	9999992	0	0.000000
c--------------------------------------------------------------------------------------------
c250 general quality constituent control
c
c    defid    parameter group id
c    dwqid    general quality id
c    qname    name of qual (must be a continuous string)
c    qunit    units for quality constituent output (mg/l), (ug/l), or (mpn/100ml)
c    qsdfg    if = 0 no sediment associated qual 
c       if = 1 sediment associated in pervious/impervious land (qsdfg should be > 0 in card 281)
c       if = 2 sediment associated in pervious/impervious land
c              and sediment associated qual is added to the dissolved part
c    gqsdfg   if = 0 general quality constituent
c             if = 1 general quality constituent simulated as a sediment (only one qual can be simulated as a sediment in each group)
c    qsofg    if = 1 then then accumulation and removal occur daily
c             if = 2 then then accumulation and removal occur every interval
c    potfcfg  if = 1 then apply background concentration potency factor (card 260) to only surface output
c             if = 2 then apply background concentration potency factor (card 260) to total land output
c
c	defid	dwqid	qname	qunit	qsdfg	gqsdfg	qsofg	potfcfg
c-----------------------------------------------------------------------------------------------------------
C255 subsurface quality control
c
c    (value of 0 = use constant qual-input; 1 = use corresponding monthly variable card)
c
c    vqofg       if = 1 the accumulation rate and limiting storage of QUALOF varies monthly   (cards 270, 271)
c    qsowfg      if = 1 the constituent is a QUALSURO (surface flow associated).
c    vsqcfg      if = 1 the concentration of this constituent in surface outflow varies monthly   (card 272)= 1 read table 272
c    qifwfg      if = 1 the constituent is a QUALIF (interflow associated).
c    viqcfg      if = 1 the concentration of this constituent in interflow outflow varies monthly   (card 273)= 1 read table 273
c    qagwfg      if = 1 the constituent is a QUALGW (groundwater associated).
c    vaqcfg      if = 1 the concentration of this constituent in groundwater outflow varies monthly (card 274)
c    adfglnd     if = 1 atmosperic deposition on land
c    maddfglnd   if = 1 atmosperic dry deposition varies monthly on land (card 275)
c    mawdfglnd   if = 1 atmosperic wet deposition varies monthly on land (card 276)
c
c	vqofg	qsowfg	vsqcfg	qifwfg	viqcfg	qagwfg	vaqcfg	adfglnd	maddfglnd	mawdfglnd
c-----------------------------------------------------------------------------------------------------------
C260  qual-input
c    storage on surface and nonseasonal parameters
c
c    defid   parameter group id
c    dwqid   general quality id
c    deluid  landuse id
c    sqo     initial storage of QUALOF on surface (lb or mpn)
c    potfw   washoff potency factor if qsdfg > 0, card 250 (lb or mpn)/ton-sediment
c    potfs   scour potency pactor if qsdfg > 0, card 250 (lb or mpn)/ton-sediment
c    potfc   background concentration potency pactor if qsdfg > 0, card 250 (lb or mpn)/ton-sediment
c    acqop   accumulation rate of QUALOF on surface (lb or mpn)/acre/day
c    sqolim  maximum storage of QUALOF on surface (lb or mpn)/acre
c    wsqop   rate of surface runoff that removes 90% of stored QUALOF per hour (in/hr)
c    soqc    concentration of constituent in surface outflow (mg/l), (ug/l), or (mpn/100ml)
c    ioqc    concentration of constituent in interflow outflow (mg/l), (ug/l), or (mpn/100ml)
c    aoqc    concentration of constituent in groundwater outflow (mg/l), (ug/l), or (mpn/100ml)
c    addc    atmospheric dry deposition flux (lb/acre/day or mpn/acre/day)
c    awdc    atmospheric wet deposition concentration (mg/l), (ug/l), or (mpn/100ml)
c
c the units of the following parameters are as follow:
c if in card 250, the unit is mg/l or ug/l, then M is lbs
c if in card 250, the unit is mpn/100ml, then M is mpn, in this case the unit for
c soqc, ioqc and aoqc should be mpn/100ml instead of mg/l
c
c	defid	dwqid	deluid	sqo	potfw	potfs	potfc	acqop	sqolim	wsqop	soqc	ioqc	aoqc	addc	awdc
c--------------------------------------------------------------------------------------------
c270 mon-accumulation rate (monaccum)
c    only required if vqofg =1 (see card 255)
c
c    defid   parameter group id
c    dwqid   general quality id
c    deluid  landuse id
c    jan-dec accumulation rate at start of each month (lb/acre/day)
c if in card 250, the unit is mpn/100ml, the above unit should be mpn/acre/day
c
c	defid	dwqid	deluid	jan	feb	mar	apr	may	jun	jul	aug	sep	oct	nov	dec
c---------------------------------------------------------------------------------------
c271 mon-storage limit of quality constituent (monsqolim)
c    only required if vqofg = 1 (see card 255)
c
c    defid   parameter group id
c    dwqid   general quality id
c    deluid  landuse id
c    jan-dec maximum storage at start of each month (lb/acre)
c if in card 250, the unit is mpn/100ml, the above unit should be mpn/acre
c
c	defid	dwqid	deluid	jan	feb	mar	apr	may	jun	jul	aug	sep	oct	nov	dec
c---------------------------------------------------------------------------------------
c272 mon-surfaceflow concentration (monsuroconc)
c    only required if vsqcfg = 1 (see card 255)
c
c    defid   parameter group id
c    dwqid   general quality id
c    deluid  landuse id
c    jan-dec concentration of constituent in surface flow at start of each month (mg/l), (ug/l), or (mpn/100ml)
c if in card 250, the unit is mpn/100ml, the above unit should be mpn/100ml
c
c	defid	dwqid	deluid	jan	feb	mar	apr	may	jun	jul	aug	sep	oct	nov	dec
c---------------------------------------------------------------------------------------
c273 mon-interflow concentration (moninterconc)
c    only required if viqcfg = 1 (see card 255)
c
c    defid   parameter group id
c    dwqid   general quality id
c    deluid  landuse id
c    jan-dec concentration of constituent in interflow at start of each month (mg/l), (ug/l), or (mpn/100ml)
c if in card 250, the unit is mpn/100ml, the above unit should be mpn/100ml
c
c	defid	dwqid	deluid	jan	feb	mar	apr	may	jun	jul	aug	sep	oct	nov	dec
c---------------------------------------------------------------------------------------
c274 mon-groundwater concentration (mongrndconc)
c    only required if vaqcfg = 1 (see card 255)
c
c    defid   parameter group id
c    dwqid   general quality id
c    deluid  landuse id
c    jan-dec concentration of constituent in groundwater at start of each month (mg/l), (ug/l), or (mpn/100ml)
c if in card 250, the unit is mpn/100ml, the above unit should be mpn/100ml
c
c	defid	dwqid	deluid	jan	feb	mar	apr	may	jun	jul	aug	sep	oct	nov	dec
c--------------------------------------------------------------------------------------------
c275 mon-atmospheric dry deposition flux
c    only required if maddfglnd = 1 (see card 255)
c
c    defid   parameter group id
c    dwqid   general quality id
c    deluid  landuse id
c    jan-dec flux of constituent in dry deposition at start of each month (lb/acre/day or mpn/acre/day)
c
c	defid	dwqid	deluid	jan	feb	mar	apr	may	jun	jul	aug	sep	oct	nov	dec
c--------------------------------------------------------------------------------------------
c276 mon-atmospheric wet deposition concentration
c    only required if mawdfglnd = 1 (see card 255)
c
c    defid   parameter group id
c    dwqid   general quality id
c    deluid  landuse id
c    jan-dec concentration of constituent in atmospheric wet deposition at start of each month (mg/l), (ug/l), or (mpn/100ml)
c
c	defid	dwqid	deluid	jan	feb	mar	apr	may	jun	jul	aug	sep	oct	nov	dec
c--------------------------------------------------------------------------------------------
C280 stream water quality control
c
c    adfgrch     if = 1 atmosperic deposition on reach (0 for no atmospheric deposition)
c    maddfgrch   if = 1 atmosperic dry deposition varies monthly on reach (card 282)
c    mawdfgrch   if = 1 atmosperic wet deposition varies monthly on reach (card 283)
c
c	adfgrch	maddfgrch	mawdfgrch
c-----------------------------------------------------------------------------------------------------------
c281 general quality constituent control
c
c    rgid     stream parameter group id
c    dwqid    general quality id
c    qsdfg    if = 0 no sediment associated qual 
c       if = 1 sediment associated in stream, adsorption/desorption of qual is simulated
c    iniCond  initial instream concentration at start of simulation by group (mg/l), (ug/l), or (mpn/100ml)
c    decay    general first-order instream loss rate of qual by reach group (1/day)
c    tcdecay  temperature correction coefficient for first-order decay of qual (min=1, max=2)
c    addc     atmospheric dry deposition flux (lb/acre/day or mpn/acre/day)
c    awdc     atmospheric wet deposition concentration (mg/l), (ug/l), or (mpn/100ml)
c    potber   scour potency pactor for stream bank erosion (lb or mpn)/ton-sediment
c
c	rgid	dwqid	qsdfg	iniCond	decay	tcdecay	addc	awdc	potber
c-----------------------------------------------------------------------------------------------------------
c282 mon-atmospheric dry deposition flux
c    only required if maddfgrch = 1 (see card 280)
c
c    rgid    reach group id
c    dwqid   general quality id
c    jan-dec flux of constituent in dry deposition at start of each month (lb/acre/day or mpn/acre/day)
c
c	rgid	dwqid	jan	feb	mar	apr	may	jun	jul	aug	sep	oct	nov	dec
c--------------------------------------------------------------------------------------------
c283 mon-atmospheric wet deposition concentration
c    only required if mawdfgrch = 1 (see card 280)
c
c    rgid    reach group id
c    dwqid   general quality id
c    jan-dec concentration of constituent in atmospheric wet deposition at start of each month (mg/l), (ug/l), or (mpn/100ml)
c
c	rgid	dwqid	jan	feb	mar	apr	may	jun	jul	aug	sep	oct	nov	dec
c--------------------------------------------------------------------------------------------
c285 parameters for decay of contaminant adsorbed to sediment
c    only required if qsdfg > 0 (see card 281)
c
c    rgid      reach group id
c    dwqid     general quality id
c    addcpm1   decay rate for qual adsorbed to suspended sediment (/day)
c    addcpm2   temperature correction coefficient for decay of qual on suspended sediment (range from 1.0 to 2.0)
c    addcpm3   decay rate for qual adsorbed to bed sediment (/day)
c    addcpm4   temperature correction coefficient for decay of qual on bed sediment (range from 1.0 to 2.0)
c
c	rgid	dwqid	addcpm1	addcpm2	addcpm3	addcpm4
c--------------------------------------------------------------------------------------------
c286 adsorption coefficients of qual
c    only required if qsdfg > 0 (see card 281)
c
c    rgid      reach group id
c    dwqid     general quality id
c    adpm1     distribution coefficients for qual with suspended sand (l/mg)
c    adpm2     distribution coefficients for qual with suspended silt (l/mg)
c    adpm3     distribution coefficients for qual with suspended clay (l/mg)
c    adpm4     distribution coefficients for qual with bed sand (l/mg)
c    adpm5     distribution coefficients for qual with bed silt (l/mg)
c    adpm6     distribution coefficients for qual with bed clay (l/mg)
c
c	rgid	dwqid	adpm1	adpm2	adpm3	adpm4	adpm5	adpm6
c--------------------------------------------------------------------------------------------
c287 adsorption/desorption rate parameters
c    only required if qsdfg > 0 (see card 281)
c
c    rgid      reach group id
c    dwqid     general quality id
c    adpm1     transfer rates between adsorbed and desorbed states of qual with suspended sand (/day)
c    adpm2     transfer rates between adsorbed and desorbed states of qual with suspended silt (/day)
c    adpm3     transfer rates between adsorbed and desorbed states of qual with suspended clay (/day)
c    adpm4     transfer rates between adsorbed and desorbed states of qual with bed sand (/day)
c    adpm5     transfer rates between adsorbed and desorbed states of qual with bed silt (/day)
c    adpm6     transfer rates between adsorbed and desorbed states of qual with bed clay (/day)
c
c	rgid	dwqid	adpm1	adpm2	adpm3	adpm4	adpm5	adpm6
c--------------------------------------------------------------------------------------------
c288 adsorption/desorption temperature correction parameters
c    only required if qsdfg > 0 (see card 281)
c
c    rgid      reach group id
c    dwqid     general quality id
c    adpm1     temperature correction coefficients for adsorption/desorption on suspended sand (range from 1.0 to 2.0)
c    adpm2     temperature correction coefficients for adsorption/desorption on suspended silt (range from 1.0 to 2.0)
c    adpm3     temperature correction coefficients for adsorption/desorption on suspended clay (range from 1.0 to 2.0)
c    adpm4     temperature correction coefficients for adsorption/desorption on bed sand (range from 1.0 to 2.0)
c    adpm5     temperature correction coefficients for adsorption/desorption on bed silt (range from 1.0 to 2.0)
c    adpm6     temperature correction coefficients for adsorption/desorption on bed clay (range from 1.0 to 2.0)
c
c	rgid	dwqid	adpm1	adpm2	adpm3	adpm4	adpm5	adpm6
c--------------------------------------------------------------------------------------------
c289 initial concentrations on sediment
c    only required if qsdfg > 0 (see card 281)
c
c    rgid      reach group id
c    dwqid     general quality id
c    sqal1     initial concentrations of qual on suspended sand (concu/mg)
c    sqal2     initial concentrations of qual on suspended silt (concu/mg)
c    sqal3     initial concentrations of qual on suspended clay (concu/mg)
c    sqal4     initial concentrations of qual on bed sand (concu/mg)
c    sqal5     initial concentrations of qual on bed silt (concu/mg)
c    sqal6     initial concentrations of qual on bed clay (concu/mg)
c
c	rgid	dwqid	sqal1	sqal2	sqal3	sqal4	sqal5	sqal6
c--------------------------------------------------------------------------------------------
c400 general channel information
c
c    admod   advection method (1 for dynamic mixing same as in HSPF and 2 for static mixing)
c    kc      crop factor associated with PEVT (used to back-calculate EVAP; EVAP = PEVT/kc)
c    sedber  stream bank erosion sediment (1 for on and 0 for off) (if sedfg=1)
c    vconfg  a value of 1 for vconfg means that F(vol) (volume-dependent) outflow demand components are multiplied by a factor which is allowed to vary through the year.
c            These monthly adjustment factors are input in Table-type MON-CONVF in this section (card 401)
c
c	admod	kc	sedber	vconfg
	1	8.500000000000e-01	0	0
c--------------------------------------------------------------------------------------------
c401 monthly F(vol) adjustment factors
c    only required if vconfg = 1 (see card 400)
c
c    rgid     stream parameter group id
c    jan-dec  F(vol) adjustment factors at the start of each month
c
c	rgid	jan	feb	mar	apr	may	jun	jul	aug	sep	oct	nov	dec
c--------------------------------------------------------------------------------------------
c405 channel routing network
c
c    rchid   reach id (same as subbasin id)
c    control output control switch for the corresponding reach
c            0 = will not write general output
c            1 = will write general output
c    NumOutlets number of downstream outlets
c    DSn     downstream outlets  DS1   Ds2  ....  DSn
c           -1 = will write zero flow for that reach segment in the output timeseries
c
c	rchid	control	NumOutlets	DS1	DS2	DSn
	3879534	1	1	3879558
	3879536	1	1	3879558
	3879552	1	1	3879556
	3879554	1	1	3879566
	3879556	1	1	3879564
	3879558	1	1	3879564
	3879560	1	1	3879720
	3879562	1	1	3879750
	3879564	1	1	3879566
	3879566	1	1	3879720
	3879568	1	1	3879556
	3879720	1	1	9999
	3879750	1	1	3879568
	3879966	1	1	3879972
	3879968	1	1	3879972
	3879970	1	1	3879974
	3879972	1	1	3879974
	3879974	1	1	3879552
	3879976	1	1	3880284
	3879978	1	1	3879562
	3879980	1	1	3879994
	3879982	1	1	3879984
	3879984	1	1	3879568
	3879986	1	1	3879990
	3879988	1	1	3879990
	3879990	1	1	9999992
	3879994	1	1	9999992
	3880284	1	1	3879994
	8889992	1	1	3879984
	9999992	1	1	8889992
c--------------------------------------------------------------------------------------------
c407  reach weather multiplier
c 
c    rchid      reach id (same as subbasin id)
c    premult    multiplier for precipitation
c    petmult    multiplier for potential evapotranspiration
c 
c	rchid	premult	petmult
	3879534	1.000000	1.000000
	3879536	1.000000	1.000000
	3879552	1.000000	1.000000
	3879554	1.000000	1.000000
	3879556	1.000000	1.000000
	3879558	1.000000	1.000000
	3879560	1.000000	1.000000
	3879562	1.000000	1.000000
	3879564	1.000000	1.000000
	3879566	1.000000	1.000000
	3879568	1.000000	1.000000
	3879720	1.000000	1.000000
	3879750	1.000000	1.000000
	3879966	1.000000	1.000000
	3879968	1.000000	1.000000
	3879970	1.000000	1.000000
	3879972	1.000000	1.000000
	3879974	1.000000	1.000000
	3879976	1.000000	1.000000
	3879978	1.000000	1.000000
	3879980	1.000000	1.000000
	3879982	1.000000	1.000000
	3879984	1.000000	1.000000
	3879986	1.000000	1.000000
	3879988	1.000000	1.000000
	3879990	1.000000	1.000000
	3879994	1.000000	1.000000
	3880284	1.000000	1.000000
	8889992	1.000000	1.000000
	9999992	1.000000	1.000000
c-----------------------------------------------------------------------------------------
c408 reach riparian buffer parameters
c 
c    rchid      reach id (same as subbasin id)
c    ripwid     riparian total width along both sides of the stream (ft)
c    ripcov     fraction of stream length covered with riparian buffer (0-1)
c 
c	rchid	ripwid	ripcov
	3879534	0.000000	0.000000
	3879536	0.000000	0.000000
	3879552	0.000000	0.000000
	3879554	0.000000	0.000000
	3879556	0.000000	0.000000
	3879558	0.000000	0.000000
	3879560	0.000000	0.000000
	3879562	0.000000	0.000000
	3879564	0.000000	0.000000
	3879566	0.000000	0.000000
	3879568	0.000000	0.000000
	3879720	0.000000	0.000000
	3879750	0.000000	0.000000
	3879966	0.000000	0.000000
	3879968	0.000000	0.000000
	3879970	0.000000	0.000000
	3879972	0.000000	0.000000
	3879974	0.000000	0.000000
	3879976	0.000000	0.000000
	3879978	0.000000	0.000000
	3879980	0.000000	0.000000
	3879982	0.000000	0.000000
	3879984	0.000000	0.000000
	3879986	0.000000	0.000000
	3879988	0.000000	0.000000
	3879990	0.000000	0.000000
	3879994	0.000000	0.000000
	3880284	0.000000	0.000000
	8889992	0.000000	0.000000
	9999992	0.000000	0.000000
c-----------------------------------------------------------------------------------------
c409 monthly riparian evapotranspiration (RIPET) adjustment factors
c
c    rgid     stream parameter group id
c    jan-dec  RIPET adjustment factors at the start of each month (0-1)
c
c	rgid	jan	feb	mar	apr	may	jun	jul	aug	sep	oct	nov	dec
	111	0.000000	0.000000	0.000000	0.000000	0.000000	0.000000	0.000000	0.000000	0.000000	0.000000	0.000000	0.000000
c--------------------------------------------------------------------------------------------
c410 reach geometry information
c
c    rchid    reach/lake id (same as subbasin id)
c    rgid     reach/lake group id
c    trgid    threshold reach/lake group id
c    lkfg     reach/lake flag (0 for reach otherwise lake)
c             lake flag = 1 (rectangular weir for internal option)
c             lake flag = 2 (triangular weir for internal option)
c             lake flag = 11 (BMP with rectangular weir for internal option)
c             lake flag = 12 (BMP with triangular weir for internal option)
c    idepth   reach/lake initial water depth (feet)
c    length   reach/lake length (miles)
c    depth    reach/lake bank full depth (feet)
c    width    reach/lake bankfull width (feet)
c    slope    reach longitudinal slope
c    n_channel    reach Manning's roughness coefficient/lake weir width (ft)
c    n_floodplain    floodplain Manning's roughness coefficient
c    r1       reach ratio of bottom width to bank full width (bottom width = r1 * width)/lake orifice height (ft)
c    r2       reach side slope of flood plane/lake orifice diameter (ft)
c    w1       reach flood plane width factor (total width of flood plane = w1*Width)/lake median particle size diameter, db50 (ft)
c    crat     ratio of maximum velocity to mean velocity in the RCHRES cross-section under typical flow conditions (greater than or equal to 1)
c    ks       weighting factor for hydraulic routing (calibration)
c    qloss    constant flow loss rate (e.g., infiltration [in / hr])
c             a negative value is a reduction factor to edge-of-stream flow for qloss_suro >= 0 and not applicable to a lake segment (0 to -1)
c    qloss_t  flow loss target reach ID
c    qloss_f  flow loss water quality flag for target reach ID (0 - use the target reach instream concentration; 1 - use the source reach instream concentration)
c    qloss_suro aggregated pervious runoff (SUROp) that controls the instream flow loss (in/hr)
c               if qloss_suro = 0, then flow loss will always occur from edge-of-stream flow (PERO) regardless of SUROp in the watershed
c               if qloss_suro < 0, then flow loss will occur from instream flow (RO) regardless of SUROp in the watershed
c               if qloss_suro > 0, then flow loss will occur from edge-of-stream flow (SURO+IFWO) if SUROp > qloss_suro
c    ro_fg   reach outflow splitting method in the Ftable (0- proportional to all outlets, 1- preference by the order of outlets)
c
c	rchid	rgid	trgid	lkfg	idepth	length	depth	width	slope	n_channel	n_floodplain	r1	r2	w1	crrat	ks	qloss	qloss_t	qloss_f	qloss_suro	ro_fg
	3879534	111	1	0	0.817027	1.337849	1.634055	16.386190	0.062680	0.040000	0.150000	0.500000	0.500000	1.500000	1.500000	0.000000	0.000000	0	0	0.000000	0
	3879536	111	1	0	0.295999	0.177717	0.591997	3.841970	0.376471	0.040000	0.150000	0.500000	0.500000	1.500000	1.500000	0.000000	0.000000	0	0	0.000000	0
	3879552	111	1	0	1.181719	3.651898	2.363439	27.761700	0.031897	0.040000	0.150000	0.500000	0.500000	1.500000	1.500000	0.000000	0.000000	0	0	0.000000	0
	3879554	111	1	0	0.418742	0.157833	0.837485	6.306355	0.025385	0.040000	0.150000	0.500000	0.500000	1.500000	1.500000	0.000000	0.000000	0	0	0.000000	0
	3879556	111	1	0	1.917491	0.116821	3.834983	55.431811	0.203232	0.040000	0.150000	0.500000	0.500000	1.500000	1.500000	0.000000	0.000000	0	0	0.000000	0
	3879558	111	1	0	1.003276	1.711303	2.006553	21.972711	0.020744	0.040000	0.150000	0.500000	0.500000	1.500000	1.500000	0.000000	0.000000	0	0	0.000000	0
	3879560	111	1	0	0.261711	0.117442	0.523421	3.222334	0.108462	0.040000	0.150000	0.500000	0.500000	1.500000	1.500000	0.000000	0.000000	0	0	0.000000	0
	3879562	111	1	0	1.028715	0.920897	2.057430	22.772910	0.012456	0.040000	0.150000	0.500000	0.500000	1.500000	1.500000	0.000000	0.000000	0	0	0.000000	0
	3879564	111	1	0	1.985856	1.016591	3.971713	58.276563	0.003839	0.040000	0.150000	0.500000	0.500000	1.500000	1.500000	0.000000	0.000000	0	0	0.000000	0
	3879566	111	1	0	2.007415	0.781706	4.014830	59.182461	0.002361	0.040000	0.150000	0.500000	0.500000	1.500000	1.500000	0.000000	0.000000	0	0	0.000000	0
	3879568	111	1	0	1.815159	1.104207	3.630317	51.254517	0.133453	0.040000	0.150000	0.500000	0.500000	1.500000	1.500000	0.000000	0.000000	0	0	0.000000	0
	3879720	111	1	0	2.029422	1.920711	4.058844	60.111502	0.002210	0.040000	0.150000	0.500000	0.500000	1.500000	1.500000	0.000000	0.000000	0	0	0.000000	0
	3879750	111	1	0	1.029717	0.086373	2.059435	22.804620	0.046331	0.040000	0.150000	0.500000	0.500000	1.500000	1.500000	0.000000	0.000000	0	0	0.000000	0
	3879966	111	1	0	0.558166	0.871186	1.116332	9.507968	0.104577	0.040000	0.150000	0.500000	0.500000	1.500000	1.500000	0.000000	0.000000	0	0	0.000000	0
	3879968	111	1	0	0.500958	0.499596	1.001917	8.147033	0.049113	0.040000	0.150000	0.500000	0.500000	1.500000	1.500000	0.000000	0.000000	0	0	0.000000	0
	3879970	111	1	0	0.664915	1.276331	1.329830	12.208518	0.060840	0.040000	0.150000	0.500000	0.500000	1.500000	1.500000	0.000000	0.000000	0	0	0.000000	0
	3879972	111	1	0	0.702483	0.529423	1.404965	13.205721	0.017171	0.040000	0.150000	0.500000	0.500000	1.500000	1.500000	0.000000	0.000000	0	0	0.000000	0
	3879974	111	1	0	0.919493	0.692848	1.838987	19.399066	0.010924	0.040000	0.150000	0.500000	0.500000	1.500000	1.500000	0.000000	0.000000	0	0	0.000000	0
	3879976	111	1	0	0.804242	1.148325	1.608484	16.021100	0.030948	0.040000	0.150000	0.500000	0.500000	1.500000	1.500000	0.000000	0.000000	0	0	0.000000	0
	3879978	111	1	0	0.977615	3.231219	1.955231	21.174273	0.042610	0.040000	0.150000	0.500000	0.500000	1.500000	1.500000	0.000000	0.000000	0	0	0.000000	0
	3879980	111	1	0	0.689121	1.240912	1.378242	12.848358	0.032225	0.040000	0.150000	0.500000	0.500000	1.500000	1.500000	0.000000	0.000000	0	0	0.000000	0
	3879982	111	1	0	0.919321	2.686261	1.838641	19.393855	0.039751	0.040000	0.150000	0.500000	0.500000	1.500000	1.500000	0.000000	0.000000	0	0	0.000000	0
	3879984	111	1	0	1.728697	1.029640	3.457393	47.802700	0.004345	0.040000	0.150000	0.500000	0.500000	1.500000	1.500000	0.000000	0.000000	0	0	0.000000	0
	3879986	111	1	0	0.838101	2.776984	1.676202	16.993292	0.034044	0.040000	0.150000	0.500000	0.500000	1.500000	1.500000	0.000000	0.000000	0	0	0.000000	0
	3879988	111	1	0	0.767294	2.381160	1.534588	14.980068	0.046075	0.040000	0.150000	0.500000	0.500000	1.500000	1.500000	0.000000	0.000000	0	0	0.000000	0
	3879990	111	1	0	0.996308	0.752501	1.992616	21.755015	0.009149	0.040000	0.150000	0.500000	0.500000	1.500000	1.500000	0.000000	0.000000	0	0	0.000000	0
	3879994	111	1	0	1.506346	1.894613	3.012693	39.267435	0.003618	0.040000	0.150000	0.500000	0.500000	1.500000	1.500000	0.000000	0.000000	0	0	0.000000	0
	3880284	111	1	0	1.381958	6.433232	2.763915	34.718499	0.011716	0.040000	0.150000	0.500000	0.500000	1.500000	1.500000	0.000000	0.000000	0	0	0.000000	0
	8889992	111	1	0	1.637667	1.054496	3.275335	44.247722	0.129480	0.040000	0.150000	0.500000	0.500000	1.500000	1.500000	0.000000	0.000000	0	0	0.000000	0
	9999992	111	1	0	1.621547	1.142733	3.243095	43.626835	0.022832	0.040000	0.150000	0.500000	0.500000	1.500000	1.500000	0.000000	0.000000	0	0	0.000000	0
c--------------------------------------------------------------------------------------------
c413 Reach Cross-section Information
c
c    rchid   x1 y1 x2 y2...
c    rchid   reach id (same as subbasin id)
c    x       distance from the left reach bank (ft)
c            it should not be greater than bank full width in card 410 (ft)
c    y       depth from the bank full reach segment (ft)
c            it should not be greater than bank full depth in card 410 (ft)
c
c--------------------------------------------------------------------------------------------
c415 reach discharge-volume relationship
c
c    rchid   reach id
c    depth   water depth (feet)
c    area    water surface area (acres)
c    vol     water volume (ac-ft)
c    disch(1, 2, 3, ....noutflows)  outflows (cfs)
c
c	rchid	depth	area	vol	disch1	disch2	dischN
c--------------------------------------------------------------------------------------------
c417 reach operations information
c 
c    rchid       reach id (same as subbasin id)
c    StartDate   start date of reach operation when the outlet is closed (month/day/year Hour:Minute:sec)
c    EndDate     end date of reach operation when the outlet is closed (month/day/year Hour:Minute:sec)
c    Outlet_1    outlet_1 operation (1-closed, 0-open)
c    Outlet_2    outlet_2 operation (1-closed, 0-open)
c    Outlet_n    outlet_n operation (1-closed, 0-open)
c                Note: At least one outlet must be opened
c 
c	rchid	StartDate	EndDate	Outlet_1	Outlet_2	Outlet_n
c-----------------------------------------------------------------------------------------
c420 general point source information
c
c    nPtSource   number of individual point sources
c    nPtQuals    number of point source quals
c
c	nPtSource	nPtQuals
	33	0
c--------------------------------------------------------------------------------------------
c425 point source 
c    Qualindex  point source qual index 
c    Qualname   point source qual name
c    Qualid    point source qual id
c    sqalfr    point source sediment associated qual fraction (0-1)
c
c	Qualindex	Qualname	qualid
c--------------------------------------------------------------------------------------------
c430 point source withdrawal
c    subbasin  point source reach id
c    permit    point source permit
c    pipe      point source pipe
c    wd_target point source withdrawal target reach id
c
c	subbasin	permit	pipe	wd_target
	3879534	A029320_1	1	-1
	3879552	A029320_2	1	-1
	3879966	A030298	1	-1
	3879972	S014202	1	-1
	3879976	A014666	1	-1
	3879982	A025508	1	-1
	3879982	A027805_1	1	-1
	3879984	A021905	1	-1
	3879986	A026957	1	-1
	3879986	H507169	1	-1
	3879986	S026895	1	-1
	3879986	S026913	1	-1
	3879986	S026914	1	-1
	3879994	A023129	1	-1
	3879994	A025647	1	-1
	3879994	A027805_2	1	-1
	3879994	S022845	1	-1
	3880284	A013507	1	-1
	3880284	A017717	1	-1
	3880284	A018240	1	-1
	3880284	A028412	1	-1
	3880284	A029599	1	-1
	3880284	D031723	1	-1
	3880284	D032960	1	-1
	3880284	S008819	1	-1
	3880284	S015253	1	-1
	3880284	S015702	1	-1
	3880284	S025888	1	-1
	8889992	S014420	1	-1
	9999992	A013455	1	-1
	9999992	A025136	1	-1
	9999992	L031600	1	-1
	9999992	S008733	1	-1
c--------------------------------------------------------------------------------------------
c435 linkage controls (optional)
c
c    rchid         reach id (same as subbasin id)
c    outlet        outlet control switch for the corresponding reach
c                  0 = will read input timeseries file
c                      (rchid/outlet can be duplicated for multiple input files)
c                  n = will write output timeseries file for outlet n.
c    filepath      the timeseries file path (continuous string without space)
c
c	rchid	outlet	filepath
c--------------------------------------------------------------------------------------------
c440 sediment parameters controls
c
c    crvfg   if crvfg = 1, erosion-related cover may vary throughout the year.
c            values are supplied in Table-type MON-COVER (card 453)
c    vsivfg  if vsivfg = 1, the rate of net vertical sediment input may vary throughout the year.
c            if vsivfg = 2, the vertical sediment input is added to the detached sediment storage only on days when no rainfall occurred during the previous day.
c            values are supplied in Table-type MON-NVSI (card 454)
c    sandfg  if sandfg = 0, the sand is not simulated.
c            if sandfg = 1, the sand transport capacity is calculated using the Toffaleti method.
c            if sandfg = 2, the sand transport capacity is calculated using the Colby method.
c            if sandfg = 3, the sand transport capacity is calculated using the power function of velocity.
c    sweepfg if sweepfg = 0, the street sweeping is not simulated.
c            if sweepfg = 1, the street sweeping is applied to sediemnt only.
c            if sweepfg = 2, the street sweeping is applied to sediment and general water quality constituents.
c
c	crvfg	vsivfg	sandfg	sweepfg
	0	0	3	0
c--------------------------------------------------------------------------------------------
c445 street sweeping for sediment (read if sedfg = 1)
c
c    defid         parameter group id
c    deluid        landuse id (impervious only)
c    deluname      landuse name
c    start_month   start month of street sweeping requirement
c    end_month     end month of street sweeping requirement
c    frequency     days between street sweeping within the landuse (0 for no sweeping)
c    percent_area  fraction of land surface which is available for street sweeping (0 for no sweeping)
c    effic_sand    fraction of sand in solids storage that is available for removal by sweeping (0-1)
c    effic_silt    fraction of silt in solids storage that is available for removal by sweeping (0-1)
c    effic_clay    fraction of clay in solids storage that is available for removal by sweeping (0-1)
c
c	defid	deluid	deluname	start_month	end_month	frequency	percent_area	effic_sand	effic_silt	effic_clay
c--------------------------------------------------------------------------------------------
c446 street sweeping for GQual (read if sedfg = 1 and pqalfg = 1)
c
c    defid         parameter group id
c    deluid        landuse id (impervious only)
c    deluname      landuse name
c    effic_GQual   fraction of general water quality constituent in surface storage that is available for removal by sweeping (0-1)
c
c	defid	deluid	deluname	effic_GQual1	effic_GQual2	effic_GQualn
c--------------------------------------------------------------------------------------------
c450 sediment parameter group 1 (read if sedfg =1)
c
c    defid   parameter group id
c    deluid  landuse id
c    smpf    supporting management practice factor
c    krer    coefficient in the soil detachment equation
c    jrer    exponent in the soil detachment equation
c    affix   fraction by which detached sediment storage decreases each day as a result of
c            soil compaction. (/day)
c    cover   fraction of land surface which is shielded from rainfall erosion
c    nvsi    rate at which sediment enters detached storage from the atmosphere (lb/ac/day)
c            negative value may be used to simulate removal by human activity or wind
c    kser    coefficient in the detached sediment washoff equation
c    jser    exponent in the detached sediment washoff equation
c    kger    coefficient in the matrix soil scour equation, which simulates gully erosion
c    jger    exponent in the matrix soil scour equation, which simulates gully erosion
c    accsdp  rate at which solids accumulate on the land surface (used in impervious land)
c    remsdp  fraction of solids storage which is removed each day when there is no runoff,
c            for example, because of street sweeping (used in impervious land)
c
c	defid	deluid	smpf	krer	jrer	affix	cover	nvsi	kser	jser	kger	jger	accsdp	remsdp
c--------------------------------------------------------------------------------------------
c451 sediment parameter group 2 (read if sedfg =1)
c
c    defid     parameter group id
c    deluid    landuse id
c    sed-suro  background concentration associated with surface flow (mg/l)
c    sed-ifwo  background concentration associated with interflow outflow (mg/l)
c    sed-agwo  background concentration associated with groundwater outflow (mg/l)
c    sed_i     fraction of sediment class_i (sand, silt, and clay)
c
c    (sand + silt + clay = 1)
c    Background sediment load is added to total sediment from LAND prior to applying fractions
c
c	defid	deluid	sed_suro	sed_ifwo	sed_agwo	sed_1	sed_2	sed_3	sed_n
c--------------------------------------------------------------------------------------------
c452 GQUAL-sediment to stream mapping (read if sediment as gqual)
c
c    defid   parameter group id
c    dwqid   general quality id
c    lutype  landuse type flow id (1 = impervious surfaceflow, 
c            2 = pervious surfaceflow, 3 = pervious interflow, 4 = pervious groundflow)
c    sed_i   fraction of sediment class_i (sand, silt, and clay)
c
c	defid	dwqid	lutype	sed_1	sed_2	sed_3	sed_n
c--------------------------------------------------------------------------------------------
c453 monthly erosion-related cover values
c    only required if crvfg = 1 (see card 440)
c
c    defid   parameter group id
c    deluid  landuse id
c    jan-dec erosion-related cover values at start of each month
c
c	defid	deluid	jan	feb	mar	apr	may	jun	jul	aug	sep	oct	nov	dec
c------------------------------------------------------------------------------------
c454 monthly net vertical sediment input
c    only required if vsivfg = 1 (see card 440)
c
c    defid   parameter group id
c    deluid  landuse id
c    jan-dec net vertical sediment input at start of each month (lb/acre/day)
c
c	defid	deluid	jan	feb	mar	apr	may	jun	jul	aug	sep	oct	nov	dec
c------------------------------------------------------------------------------------
c455 sediment general parameters group 3 (read if sedfg = 1)
c    general sediment related parameters for instream transport
c
c    rgid     stream parameter group id
c    bedwid   bed width (ft) - this is constant for the entire simulation period
c    beddep   initial bed depth (ft)
c    por      porosity
c    burial   burial rate of aggregated sediment layer (in/day)
c             if burial = 0 then burial rate in card 456 is used
c
c
c	rgid	bedwid	beddep	por	burial
c--------------------------------------------------------------------------------------------
c456 sediment parameters group 4 (read if sedfg = 1)
c    cohesive suspended sediment variables for instream transport
c
c    rgid           stream parameter group id
c    sed_id         sediment class id
c    sedflg         sediment flag indicating sediment class (0 for sand, 1 for silt, and 2 for clay)
c    sedo           initial sediment conc in fluid phase (mg/liter)
c    sedfrac        initial sediment fractions (by weight) in the bed material
c    db50/d         median diameter of the non-cohesive sediment (sand) (in) (sandfg = 1 or 2)
c                   / effective diameter of the cohesive particles (silt and clay) (in)
c    w              corresponding fall velocity of the particle in still water (in/s)
c    rho            density of the particles (gm/cm^3)
c    ksand/taucd    coefficient in the sandload power function formula (sandfg = 3)
c                   / critical bed shear stress for deposition of the cohesive particle - generally taucd <= taucs (lb/ft^2)
c                   if tau > taucd then no deposition
c                   if tau < taucd then deposition rate approaches settling velocity, w
c    expsnd/taucs   exponent in the sandload power function formula (sandfg = 3)
c                   / critical bed shear stress for scour of the cohesive particle (lb/ft^2)
c                   if tau < taucs then no scour
c                   if tau > taucs then scour steadily increases
c    m              erodibility coefficient of the cohesive particle (lb/ft^2/day)
c    burial         burial rate of the sediment particle (in/day)
c                   it is used if burial rate in card 455 is zero
c
c
c	rgid	sed_id	sedflg	sedo	sedfrac	db50/d	w	rho	ksand/taucd	expsnd/taucs	m	burial
c--------------------------------------------------------------------------------------------
c457 Streambank erosion sediment parameters (read if sedfg = 1 and sedber = 1)
c
c    rchid   reach id
c    lber    erodible stream length (miles)
c    kber    coefficient for scour of the bank matrix soil (calibration)
c    jber    exponent for scour of the bank matrix soil (calibration)
c    qber    bank erosion flow threshold causing channel bank soil erosion (cfs)
c            if = negative then threshold flow is at the bank full depth (cfs)
c    potNH4  particulate NH4-N bank erosion potency factor for RQUAL (lb/ton-sediment)
c    potPO4  particulate PO4-P bank erosion potency factor for RQUAL (lb/ton-sediment)
c    sed_i   fraction of sediment class_i (sand, silt, and clay)
c
c	rchid	lber	kber	jber	qber	potNH4	potPO4	sed_1	sed_2	sed_3	sed_n
c--------------------------------------------------------------------------------------------
c460 soil temperature control   (read if tempfg = 1)
c
c    msltfg  if = 1 monthly vary aslt and bslt parameters in surface flow temperature calculation
c    miftfg  if = 1 monthly vary aift and bift parameters in interflow temperature calculation
c    mgwtfg  if = 1 monthly vary agwt and bgwt parameters in ground water temperature calculation
c
c	msltfg	miftfg	mgwtfg
c--------------------------------------------------------------------------------------------
c461 Soil Temperature   (read if tempfg =1)
c
c    defid   parameter group id
c    deluid  landuse id
c    tsopfg  if = 0 compute subsurface temperatures using a mean departure from air temperature plus a smoothing factor
c            if = 1 compute subsurface temperature using regression
c            if = 2 the lower/gw layer temperature is a function of upper layer temperature instead of air temperature
c    aslt    surface layer temperature when the air temperature 0 degrees C
c    bslt    slope of the surface layer temperature regression equation
c    aift    mean difference between interflow temperature and air temperature (C)
c    bift    smoothing factor in the interflow temperature calculation
c    agwt    mean difference between groundwater temperature and air temperature (C)
c    bgwt    smoothing factor in the groundwater temperature calculation
c    islt    initial surface flow temperature (C)
c    iift    initial interflow temperature (C)
c    igwt    initial groundwater temperature (C)
c
c            y = a + b * x
c	defid	deluid	tsopfg	aslt	bslt	aift	bift	agwt	bgwt	islt	iift	igwt
c--------------------------------------------------------------------------------------------
c462 mon-aslt 
c    only required if tempfg = 1 and msltfg = 1 (see card 460)
c
c    defid   parameter group id
c    deluid  landuse id
c    jan-dec surface layer temperature when the air temperature 0 degrees C at start of each month (C)
c
c	defid	deluid	jan	feb	mar	apr	may	jun	jul	aug	sep	oct	nov	dec
c------------------------------------------------------------------------------------
c463 mon-bslt 
c    only required if tempfg = 1 and msltfg = 1 (see card 460)
c
c    defid   parameter group id
c    deluid  landuse id
c    jan-dec slope of the surface layer temperature regression equation at start of each month
c
c	defid	deluid	jan	feb	mar	apr	may	jun	jul	aug	sep	oct	nov	dec
c------------------------------------------------------------------------------------
c464 mon-aift 
c    only required if tempfg = 1 and miftfg = 1 (see card 460)
c
c    defid   parameter group id
c    deluid  landuse id
c    jan-dec mean difference between interflow temperature and air temperature at start of each month (C)
c
c	defid	deluid	jan	feb	mar	apr	may	jun	jul	aug	sep	oct	nov	dec
c------------------------------------------------------------------------------------
c465 mon-bift 
c    only required if tempfg = 1 and miftfg = 1 (see card 460)
c
c    defid   parameter group id
c    deluid  landuse id
c    jan-dec smoothing factor in the interflow temperature calculation at start of each month
c
c	defid	deluid	jan	feb	mar	apr	may	jun	jul	aug	sep	oct	nov	dec
c------------------------------------------------------------------------------------
c466 mon-agwt 
c    only required if tempfg = 1 and mgwtfg = 1 (see card 460)
c
c    defid   parameter group id
c    deluid  landuse id
c    jan-dec mean difference between groundwater temperature and air temperature at start of each month (C)
c
c	defid	deluid	jan	feb	mar	apr	may	jun	jul	aug	sep	oct	nov	dec
c------------------------------------------------------------------------------------
c467 mon-bgwt 
c    only required if tempfg = 1 and mgwtfg = 1 (see card 460)
c
c    defid   parameter group id
c    deluid  landuse id
c    jan-dec smoothing factor in the groundwater temperature calculation at start of each month
c
c	defid	deluid	jan	feb	mar	apr	may	jun	jul	aug	sep	oct	nov	dec
c------------------------------------------------------------------------------------
c470 Temperature Parameters for Land Groups  (read if tempfg =1)
c
c    subbasin    subbasin id
c    melev     the mean watershed elevation (ft)
c    eldat       difference in elevation between watershed and the air temperature gage (ft)
c    rmelev      the mean RCHRES elevation (ft)
c    reldat      difference in elevation between the RCHRES and the air temperature gage (ft)
c                (positive if RCHRES is higher than the gage).
c
c	subbasin	melev	eldat	rmelev	reldat
c--------------------------------------------------------------------------------------------
c474 24-hourly dry lapse rates (read if tempfg = 1)
c
c    12AM-11PM  lapse_rate - dry period lapse rate varying between 0.0035 to 0.005 (degree F/ft)
c
c	12AM	1AM	2AM	3AM	4AM	5AM	6AM	7AM	8AM	9AM	10AM	11AM	12PM	1PM	2PM	3PM	4PM	5PM	6PM	7PM	8PM	9PM	10PM	11PM
c--------------------------------------------------------------------------------------------
c475 Temperature Parameters for Stream Groups  (read if tempfg =1)
c
c    rgid    stream parameters group id
c    cfsaex  correction factor for solar radiation; fraction of RCHRES surface exposed to radiation
c    katrad  longwave radiation coefficient
c    kcond   conduction-convection heat transport coefficient
c    kevap   evaporation coefficient
c
c	rgid	cfsaex	katrad	kcond	kevap
c--------------------------------------------------------------------------------------------
c480 Bed Heat Conduction Parameters for Stream Groups  (read if tempfg=1)
c
c    rgid    stream parameters group id
c    preflg  flag for heat transfer rates for water surface (0 = off)
c    bedflg  bed conduction flag
c            0 - bed conduction is not simulated
c            1 - single interface (water-mud) heat transfer method
c            2 - two-interface (water-mud and mud-ground) heat transfer method
c            3 - Jobson method (not supported)
c    tgflg   source of the ground temperature for the bed conduction (used when bedflg is 1 or 2)
c            1 - time series (not supported)
c            2 - single value
c            3 - monthly values (card 485)
c    muddep  depth of the mud layer in the two-interface model (bedflg = 2) (m)
c    tgrnd   constant (tgflg = 2) ground temperature (bedflg = 1 or 2) (degree C)
c    kmud    heat conduction coefficient between water and the mud/ground (bedflg = 1 or 2) (kcal/m2/degC/hr)
c    kgrnd   heat conduction coefficient between ground and mud in the two-interface model (bedflg = 2) (kcal/m2/degC/hr)
c
c	rgid	preflg	bedflg	tgflg	muddep	tgrnd	kmud	kgrnd
c--------------------------------------------------------------------------------------------
c485 monthly ground temperatures for bed heat conduction algorithms
c    only required if tgflg = 3 (see card 480)
c
c    rgid     stream parameter group id
c    jan-dec  tgrndm - monthly ground temperatures for use in the bed heat conduction models (degree C)
c
c	rgid	jan	feb	mar	apr	may	jun	jul	aug	sep	oct	nov	dec
c--------------------------------------------------------------------------------------------
c500 land to stream mapping (read if oxfg =1)
c
c    deluid  landuse id
c    dwqid   general quality id
c    lutype  landuse type flow id (1 = impervious surfaceflow, 
c            2 = pervious surfaceflow, 3 = pervious interflow, 4 = pervious groundflow)
c    bod     bod fraction in pqual
c    nox     nitrate fraction in pqual
c    tam     total ammonia (nh3 + nh4) fraction in  pqual
c    snh4    particulate NH4-N fraction in pqual
c    po4     ortho-phosphorus fraction in pqual
c    spo4    particulate PO4-P fraction in pqual
c    orn     organic-nitrogen fraction in pqual
c    orp     organic-phosphorus fraction in pqual
c    orc     organic-carbon fraction in pqual
c
c	deluid	dwqid	lutype	bod	nox	tam	snh4	po4	spo4	orn	orp	orc
c--------------------------------------------------------------------------------------------
c501 atmosphere to stream mapping
c
c    only required if adfgrch = 1 (see card 280)
c
c    rgid    stream parameter group ID
c    dwqid   general quality ID
c    bod     bod fraction in PQUAL
c    nox     nitrate fraction in PQUAL
c    tam     total ammonia (nh3 + nh4) fraction in PQUAL
c    po4     orthophosphate fraction in PQUAL
c    orn     organic-nitrogen fraction in PQUAL
c    orp     organic-phosphorus fraction in PQUAL
c    orc     organic-carbon fraction in PQUAL
c
c	rgid	dwqid	bod	nox	tam	po4	orn	orp	orc
c--------------------------------------------------------------------------------------------
c502 gases control   (read if oxfg =1)
c
c    midofg  if = 1 monthly very DO concentration in interflow
c    mico2fg if = 1 monthly very CO2 concentration in interflow
c    madofg  if = 1 monthly very DO concentration in ground water
c    maco2fg if = 1 monthly very CO2 concentration in ground water
c
c	midofg	mico2fg	madofg	maco2fg
c--------------------------------------------------------------------------------------------
c503   DO-CO2 Control constant values (read if oxfg =1)
c
c    defid   parameter group id
c    deluid  landuse id
c    sdoxp   concentration of dissolved oxygen in surface flow (mg/l)
c    sco2p   concentration of dissolved CO2 in surface flow (mg/l)
c    idoxp   concentration of dissolved oxygen in interflow outflow (mg/l)
c    ico2p   concentration of dissolved CO2 in interflow outflow (mg/l)
c    adoxp   concentration of dissolved oxygen in active groundwater outflow (mg/l)
c    aco2p   concentration of dissolved CO2 in active groundwater outflow (mg/l)
c
c	defid	deluid	sdoxp	sco2p	idoxp	ico2p	adoxp	aco2p
c--------------------------------------------------------------------------------------------
c504 mon-DO (interflow)  mg C/l
c    only required if oxfg = 1 and midofg = 1 (see card 502)
c
c    defid   parameter group id
c    deluid  landuse id
c    jan-dec interflow dissolved oxygen concentration at start of each month (mg/l)
c
c	defid	deluid	jan	feb	mar	apr	may	jun	jul	aug	sep	oct	nov	dec
c------------------------------------------------------------------------------------
c505 mon-DO (groundwater)
c    only required if oxfg = 1 and madofg = 1 (see card 502)
c
c    defid   parameter group id
c    deluid  landuse id
c    jan-dec groundwater dissolved oxygen concentration at start of each month (mg/l)
c
c	defid	deluid	jan	feb	mar	apr	may	jun	jul	aug	sep	oct	nov	dec
c------------------------------------------------------------------------------------
c506 mon-CO2 (interflow)  mg C/l
c    only required if oxfg = 1 and mico2fg = 1 (see card 502)
c
c    defid   parameter group id
c    deluid  landuse id
c    jan-dec interflow carbon dioxide concentration at start of each month (mg/l)
c
c	defid	deluid	jan	feb	mar	apr	may	jun	jul	aug	sep	oct	nov	dec
c--------------------------------------------------------------------------------------------
c507 mon-CO2 (groundwater)
c    only required if oxfg = 1 and maco2fg = 1 (see card 502)
c
c    defid   parameter group id
c    deluid  landuse id
c    jan-dec groundwater carbon dioxide concentration at start of each month (mg/l)
c
c	defid	deluid	jan	feb	mar	apr	may	jun	jul	aug	sep	oct	nov	dec
c--------------------------------------------------------------------------------------------
c510 DO/BOD control   
c
c    benrfg   benthic release flag (for benthic related parameters)
c    reamfg reaeration flag (indicates the method used to calculate the reaeration coefficient for free-flowing streams)
c    if = 1 then Tsivoglou method is used
c    if = 2 then Owens, Churchill, or O'Connor-Dobbins method is used depending on velocity and depth of water
c    if = 3 then Coefficient is calculated as a power function of velocity and/or depth
c
c	benrfg	reamfg
c--------------------------------------------------------------------------------------------
c511 ox-parm1
c
c    rgid    stream parameter group id
c    kbod20  bod decay rate at 20oC (1/hr)
c    tcbod   temperature adjustment coefficient for bod decay
c    kodset  bod settling rate (m/hr)
c    supsat  maximum allowable dissolved oxygen supersaturation (expressed as a multiple of the dissolved oxygen saturation concentration)
c    tcginv  temperature correction coefficient for surface gas invasion
c    reak    empirical constant in the equation
c            if reamfg = 1 then it is an escape coefficient (1/ft)
c            if reamfg = 3 then it is used to calculate the reaeration coefficient (1/hr)
c    expred  exponent to depth in the reaeration coefficient equation (for reamfg = 3)
c    exprev  exponent to velocity in the reaeration coefficient equation (for reamfg = 3)
c    cforea  correction factor in the lake reaeration equation; it accounts for good or poor circulation characteristics
c
c	rgid	kbod20	tcbod	kodset	supsat	tcginv	reak	expred	exprev	cforea
c--------------------------------------------------------------------------------------------
c512 ox-parm2
c
c    rgid       stream parameter group id
c    benod      benthal oxygen demand at 20 degrees C (with unlimited DO concentration) (mg/m2/hr)
c    tcben      temperature correction coefficient for benthal oxygen demand
c    expod      exponential factor in the dissolved oxygen term of the benthal oxygen demand equation
c    brbod      benthal release rate of BOD under aerobic conditions.(mg/m2/hr)
c    brbod_inc  increment to benthal release of BOD under anaerobic conditions. (mg/m2/hr)
c    expre1     the exponent in the DO term of the benthal BOD release equation
c
c	rgid	benod	tcben	expod	brbod	brbod_inc	exprel
c------------------------------------------------------------------------------------
c513 oxrx-initial conditions
c
c    rgid   stream parameter group id
c    dox    DO initial condition. (mg/l)
c    bod    BOD initial condition in water column. (mg/l)
c    satdo  Initial DO saturation concentration. (mg/l)
c
c	rgid	dox	bod	satdo
c------------------------------------------------------------------------------------
c514 ox-scour parms
c
c    rgid   stream parameter group id
c    scrvel threshold velocity above which the effect of scouring on benthal release rates is considered. (m/s)
c    scrmul multiplier by which benthal releases are increased during scouring.
c
c	rgid	scrvel	scrmul
c------------------------------------------------------------------------------------
c520 nutrients control   
c
c    tamfg    total ammonia (nh3 + nh4) flag
c    no2fg    nitrite flag
c    po4fg    ortho-phosphorus flag
c    amvfg    ammonia volatilization flag
c    denfg    denitrification flag
c    adnhfg   NH4 adsorption flag
c    adpofg   PO4 adsorption flag
c    mphfg    monthly pH flag (not supported in this version)
c
c	tamfg	no2fg	po4fg	amvfg	denfg	adnhfg	adpofg	mphfg
c--------------------------------------------------------------------------------------------
c521 nut-parm1
c
c    rgid    stream parameter group id
c    cvbo    conversion from milligrams biomass to milligrams oxygen (mg/mg)
c    cvbpc   conversion from biomass expressed as phosphorus to carbon (mols/mol)
c    cvbpn   conversion from biomass expressed as phosphorus to nitrogen (mols/mol)
c    bpcntc  percentage of biomass which is carbon (by weight)
c    ktam20  nitrification rate of ammonia at 20 degrees C (1/hr)
c    kno220  nitrification rate of nitrite at 20 degrees C (1/hr)
c    tcnit   temperature correction coefficient for nitrification
c    kno320  nitrate denitrification rate at 20 degrees C (1/hr)
c    tcden   temperature correction coefficient for denitrification
c    denoxt  dissolved oxygen concentration threshold for denitrification (mg/l)
c
c	rgid	cvbo	cvbpc	cvbpn	bpcntc	ktam20	kno220	tcnit	kno320	tcden	denoxt
c--------------------------------------------------------------------------------------------
c522 nut-parm2
c
c    rgid         stream parameter group id
c    brtam_1      benthal release rate of ammonia under aerobic condition (mg/m2/hr)
c    brtam_2      benthal release rates of ammonia under anaerobic conditions (mg/m2/hr)
c    brpo4_1      benthal release rate of ortho-phosphorus under aerobic condition (mg/m2/hr)
c    brpo4_2      benthal release rate of ortho-phosphorus under anaerobic condition (mg/m2/hr)
c    bnh4(1-3)    constant bed concentrations of ammonia-N adsorbed to sand, silt, and clay (mg/kg)
c    bpo4(1-3)    constant bed concentrations of ortho-phosphorus-P adsorbed to sand, silt, and clay (mg/kg)
c
c	rgid	brtam_1	brtam_2	brpo4_1	brpo4_2	bnh4_1	bnh4_2	bnh4_3	bpo4_1	bpo4_2	bpo4_3
c------------------------------------------------------------------------------------
c523 nut-parm3
c
c    rgid         stream parameter group id
c    anaer        concentration of dissolved oxygen below which anaerobic conditions are assumed to exist (mg/l)
c    adnhpm(1-3)  adsorption coefficients (Kd) for ammonia-N adsorbed to sand, silt, and clay (cm3/g)
c    adpopm(1-3)  adsorption coefficients for ortho-phosphorus-P adsorbed to sand, silt, and clay (cm3/g)
c    expnvg       exponent in the gas layer mass transfer coefficient equation for NH3 volatilization
c    expnvl       exponent in the liquid layer mass transfer coefficient equation for NH3 volatilization
c
c	rgid	anaer	adnhpm_1	adnhpm_2	adnhpm_3	adpopm_1	adpopm_2	adpopm_3	expnvg	expnvl
c------------------------------------------------------------------------------------
c524 nut-initial conditions
c
c    rgid       stream parameter group id
c    no3        initial concentration of nitrate (mg/l)
c    tam        initial concentration of total ammonia (nh3 + nh4) (mg/l)
c    no2        initial concentration of nitrite (as N) (mg/l)
c    po4        initial concentration of ortho-phosphorus (as P) (mg/l)
c    snh4(1-3)  initial suspended concentrations of ammonia-N adsorbed to sand, silt, and clay (mg/kg)
c    spo4(1-3)  initial suspended concentrations of ortho-phosphorus-P adsorbed to sand, silt, and clay (mg/kg)
c
c	rgid	no3	tam	no2	po4	snh4_1	snh4_2	snh4_3	spo4_1	spo4_2	spo4_3
c------------------------------------------------------------------------------------
c530 plank flags   
c
c    phyfg    phytoplankton flag
c    zoofg    zooplankton flag
c    balfg    benthic algae flag
c    sdltfg   influence of sediment washload on light extinction flag
c    amrfg    ammonia retardation of nitrogen-limited growth flag
c    decfg    linkage between carbon dioxide and phytoplankton growth flag (if on, the linkage is decoupled)
c    nsfg     ammonia is included as part of available nitrogen supply in nitrogen limited growth calculations
c    orefg    indicates the oref parameter in card 534 as a flowrate (if = 0) otherwise velocity
c
c	phyfg	zoofg	balfg	sdltfg	amrfg	decfg	nsfg	orefg
c--------------------------------------------------------------------------------------------
c531 plank-parm1
c
c    rgid    stream parameter group id
c    ratclp  ratio of chlorophyll A content of biomass to phosphorus content
c    nonref  non-refractory fraction of algae and zooplankton biomass
c    litsed  multiplication factor to total sediment concentration to determine sediment contribution to light extinction (l/mg/ft)
c    alnpr   fraction of nitrogen requirements for phytoplankton growth that is satisfied by nitrate
c    extb    base extinction coefficient for light (1/m)
c    malgr   maximum unit algal growth rate (1/hr)
c
c	rgid	ratclp	nonref	litsed	alnpr	extb	malgr
c--------------------------------------------------------------------------------------------
c532 plank-parm2
c
c    rgid    stream parameter group id
c    cmmlt   Michaelis-Menten constant for light limited growth (lay/min)
c    cmmn    nitrate Michaelis-Menten constant for nitrogen limited growth (mg/l)
c    cmmnp   nitrate Michaelis-Menten constant for phosphorus limited growth (mg/l)
c    cmmp    phosphate Michaelis-Menten constant for phosphorus limited growth (mg/l)
c    talgrh  temperature above which algal growth ceases (C)
c    talgrl  temperature below which algal growth ceases (C)
c    talgrm  temperature below which algal growth is retarded (C)
c
c	rgid	cmmlt	cmmn	cmmnp	cmmp	talgrh	talgrl	talgrm
c------------------------------------------------------------------------------------
c533 plank-parm3
c
c    rgid   stream parameter group id
c    alr20  algal unit respiration rate at 20 degrees C (1/hr)
c    aldh   high algal unit death rate (1/hr)
c    aldl   low algal unit death rate (1/hr)
c    oxald  increment to phytoplankton unit death rate due to anaerobic conditions (1/hr)
c    naldh  inorganic nitrogen concentration below which high algal death rate occurs (as nitrogen) (mg/l)
c    paldh  inorganic phosphorus concentration below which high algal death rate occurs (as phosphorus) (mg/l)
c
c	rgid	alr20	aldh	aldl	oxald	naldh	paldh
c------------------------------------------------------------------------------------
c534 plank-parm4
c
c    rgid    stream parameter group id
c    phycon  constant inflow concentration of plankton from land to reach (mg/l)
c    seed    minimum concentration of plankton not subject to advection (i.e., at high flow) (mg/l)
c    mxstay  concentration of plankton not subject to advection at very low flow (mg/l)
c    oref    velocity/outflow at which the concentration of plankton not subject to advection is midway between SEED and MXSTAY, see card 530 (m/s or m3/s)
c    claldh  chlorophyll a concentration above which high algal death rate occurs (ug/l)
c    physet  phytoplankton settling rate (m/hr)
c    refset  settling rate for dead refractory organics (m/hr)
c    cfsaex  This factor is used to adjust the input solar radiation to make it applicable to the RCHRES;
c            for example, to account for shading of the surface by trees or buildings
c    mbal    maximum benthic algae density (as biomass) (mg/m2)
c    cfbalr  ratio of benthic algal to phytoplankton respiration rate
c    cfbalg  ratio of benthic algal to phytoplankton growth rate
c
c	rgid	phycon	seed	mxstay	oref	claldh	physet	refset	cfsaex	mbal	cfbalr	cfbalg
c------------------------------------------------------------------------------------
c535 plank-initial conditions
c
c    rgid   stream parameter group id
c    phyto  initial phytoplankton concentration, as biomass (mg/l)
c    benal  initial benthic algae density, as biomass (mg/m2)
c    orn    initial dead refractory organic nitrogen concentration (mg/l)
c    orp    initial dead refractory organic phosphorus concentration (mg/l)
c    orc    initial dead refractory organic carbon concentration (mg/l)
c
c	rgid	phyto	benal	orn	orp	orc
c------------------------------------------------------------------------------------
c540 pH controls   
c
c    phffg1   value of 0 indicates that the removal factor for total inorganic carbon is constant, given as phfrc1
c    a value of 1 indicates the monthly removal factors
c    phffg2   value of 0 indicates that the removal factor for dissolved carbon dioxide is constant, given as phfrc2
c             a value of 1 indicates the monthly removal factors
c    phfrc1   removal fraction for total inorganic carbon
c    phfrc2   removal fraction for dissolved carbon dioxide
c
c	phffg1	phffg2	phfrc1	phfrc2
c--------------------------------------------------------------------------------------------
c541 pH-parm
c
c    rgid    stream parameter group id
c    phcnt maximum number of iterations used to solve for the pH
c    alkcon number of the conservative substance which is used to simulate alkalinity
c            Alkalinity must be simulated in order to obtain valid results
c    cfcinv ratio of the carbon dioxide invasion rate to the oxygen reaeration rate
c    brco2_1 benthal release rate of CO2 (as carbon) for aerobic conditions (mg/m2/hr)
c    brco2_2 benthal release rate of CO2 (as carbon) for anaerobic conditions (mg/m2/hr)
c
c	rgid	phcnt	alkcon	cfcinv	brco2_1	brco2_2
c--------------------------------------------------------------------------------------------
c542 pH-initial conditions
c
c    rgid stream parameter group id
c    tic  initial total inorganic carbon (mg/l)
c    co2  initial carbon dioxide (as carbon) (mg/l)
c    ph  initial pH
c
c	rgid	tic	co2	ph
c------------------------------------------------------------------------------------
c543 mon-tic (monthly removal fraction for total inorganic carbon)
c    only required if phfg = 1 and phffg1 = 1 (see card 502 and card 540)
c
c    rgid    stream parameter group id
c    jan-dec total inorganic carbon removal fraction at the start of each month
c
c	rgid	jan	feb	mar	apr	may	jun	jul	aug	sep	oct	nov	dec
c--------------------------------------------------------------------------------------------
c544 mon-co2 (monthly removal fraction for dissolved carbon dioxide)
c    only required if phfg = 1 and phffg2 = 1 (see card 502 and card 540)
c
c    rgid    stream parameter group id
c    jan-dec dissolved carbon dioxide removal fraction at the start of each month
c
c	rgid	jan	feb	mar	apr	may	jun	jul	aug	sep	oct	nov	dec
c--------------------------------------------------------------------------------------------
c600 TMDL control flags
c
c    ncpt        if > 0 then use point sources control card 660
c    ncland      if > 0 then use landuse control card 670
c                if = 1 then apply reduction to only surface output
c                if = 2 then apply reduction to total land output
c    ncrch       if > 0 then use reach control card 685 and 690
c    ntrgp       number of threshold groups in Card 410 and 610
c    ntnum       number of defined thresholds for analysis
c                if > 0 then use threshold control cards 605 and 610
c
c	ncpt	ncland	ncrch	ntrgp	ntnum
	33	2	0	1	1
c--------------------------------------------------------------------------------------------
c605 TMDL threshold mapping (used if ntnum > 0 in card 600)
c
c    tnum       threshold ordinal number
c    tqsd       threshold qual (1 for dissolved only and 2 for total)
c    tcount     number of water quality constituent to aggregate
c    tqid       list of tqid to aggregate - number of tqid in list = tcount (GQUAL/RQUAL IDs)
c
c	tnum	tqsd	tcount	tqid1	tqid2	tqidn
	1	2	1	100
c--------------------------------------------------------------------------------------------
c610 TMDL threshold definitions (used if ntnum > 0 in card 600)
c
c    trgid      threshold reach group ID (corresponds to trgid on Card 410)
c    tnum       threshold number (corresponds to tnum on Card 605)
c    ttype      threshold type (possible values: 0, 1, 2, 3 or -1, -2, -3)
c                0 = no standard to be applied for the trgid
c                1 = instantaneous values > threshold
c                2 = arithmetic mean > threshold
c                3 = geometric mean > threshold
c               -1 = instantaneous values < threshold
c               -2 = arithmetic mean < threshold
c               -3 = geometric mean < threshold
c    tdays      number of days over model output is aggregated and/or is compared
c               if tdays = 0 then threshold becomes percent of time
c    jan-dec    twelve monthly values for threshold (for constant, use same value 12 times)
c               (units are same as in card 250)
c
c    examples: ttype  tdays  description/interpretation
c                  1      1  at least one instantaneous value within a 1-day running period > threshold
c                 -1      1  at least one instantaneous value within a 1-day running period < threshold
c                  1      0  percent of time that instantaneous value > threshold
c                  2      4  4-day running arithmetic mean > threshold
c                  3     30  30-day running geometric mean > threshold (for previous 30-days)
c
c	trgid	tnum	ttype	tdays	jan	feb	mar	apr	may	jun	jul	aug	sep	oct	nov	dec
	1	1	1	0	0.000000	0.000000	0.000000	0.000000	0.000000	0.000000	0.000000	0.000000	0.000000	0.000000	0.000000	0.000000
c---------------------------------------------------------------------------------------
c660 TMDL point source control (used if ncpt > 0 on card 600)
c
c    rchid         reach id
c    permit        point source index (level1)
c    pipe          point source index qualifier (level2)
c    reduction     reduction of pollutant from point source (in fraction)
c
c	rchid	permit	pipe	reduction_flow	reduction_qual1	reduction_qual2	reduction_qualn
	3879534	A029320_1	1	1.000000
	3879552	A029320_2	1	1.000000
	3879966	A030298	1	1.000000
	3879972	S014202	1	1.000000
	3879976	A014666	1	1.000000
	3879982	A025508	1	1.000000
	3879982	A027805_1	1	1.000000
	3879984	A021905	1	1.000000
	3879986	A026957	1	1.000000
	3879986	H507169	1	1.000000
	3879986	S026895	1	1.000000
	3879986	S026913	1	1.000000
	3879986	S026914	1	1.000000
	3879994	A023129	1	1.000000
	3879994	A025647	1	1.000000
	3879994	A027805_2	1	1.000000
	3879994	S022845	1	1.000000
	3880284	A013507	1	1.000000
	3880284	A017717	1	1.000000
	3880284	A018240	1	1.000000
	3880284	A028412	1	1.000000
	3880284	A029599	1	1.000000
	3880284	D031723	1	1.000000
	3880284	D032960	1	1.000000
	3880284	S008819	1	1.000000
	3880284	S015253	1	1.000000
	3880284	S015702	1	1.000000
	3880284	S025888	1	1.000000
	8889992	S014420	1	1.000000
	9999992	A013455	1	1.000000
	9999992	A025136	1	1.000000
	9999992	L031600	1	1.000000
	9999992	S008733	1	1.000000
c--------------------------------------------------------------------------------------------
c670 TMDL land-based control (used if ncland > 0 on card 600)
c 
c    subbasin   subwatershed id
c    deluid     land use id 
c    luname     land use name
c    reduction  reduction of pollutant from corresponding landuse and subwatershed
c 
c	subbasin	deluid	pluname	reduction_1	reduction_2	reduction_3	reduction_n
	3879534	1000	Developed_Impervious-All-All-All	0.000000
	3879534	2110	Developed_Pervious-A-Low-All	0.000000
	3879534	2120	Developed_Pervious-A-Med-All	0.000000
	3879534	2130	Developed_Pervious-A-High-All	0.000000
	3879534	2210	Developed_Pervious-B-Low-All	0.000000
	3879534	2220	Developed_Pervious-B-Med-All	0.000000
	3879534	2230	Developed_Pervious-B-High-All	0.000000
	3879534	2310	Developed_Pervious-C-Low-All	0.000000
	3879534	2320	Developed_Pervious-C-Med-All	0.000000
	3879534	2330	Developed_Pervious-C-High-All	0.000000
	3879534	2410	Developed_Pervious-D-Low-All	0.000000
	3879534	2420	Developed_Pervious-D-Med-All	0.000000
	3879534	2430	Developed_Pervious-D-High-All	0.000000
	3879534	3110	Barren-A-Low-All	0.000000
	3879534	3120	Barren-A-Med-All	0.000000
	3879534	3130	Barren-A-High-All	0.000000
	3879534	3210	Barren-B-Low-All	0.000000
	3879534	3220	Barren-B-Med-All	0.000000
	3879534	3230	Barren-B-High-All	0.000000
	3879534	3310	Barren-C-Low-All	0.000000
	3879534	3320	Barren-C-Med-All	0.000000
	3879534	3330	Barren-C-High-All	0.000000
	3879534	3410	Barren-D-Low-All	0.000000
	3879534	3420	Barren-D-Med-All	0.000000
	3879534	3430	Barren-D-High-All	0.000000
	3879534	4110	Forest-A-Low-All	0.000000
	3879534	4120	Forest-A-Med-All	0.000000
	3879534	4130	Forest-A-High-All	0.000000
	3879534	4210	Forest-B-Low-All	0.000000
	3879534	4220	Forest-B-Med-All	0.000000
	3879534	4230	Forest-B-High-All	0.000000
	3879534	4310	Forest-C-Low-All	0.000000
	3879534	4320	Forest-C-Med-All	0.000000
	3879534	4330	Forest-C-High-All	0.000000
	3879534	4410	Forest-D-Low-All	0.000000
	3879534	4420	Forest-D-Med-All	0.000000
	3879534	4430	Forest-D-High-All	0.000000
	3879534	5110	Scrub-A-Low-All	0.000000
	3879534	5120	Scrub-A-Med-All	0.000000
	3879534	5130	Scrub-A-High-All	0.000000
	3879534	5210	Scrub-B-Low-All	0.000000
	3879534	5220	Scrub-B-Med-All	0.000000
	3879534	5230	Scrub-B-High-All	0.000000
	3879534	5310	Scrub-C-Low-All	0.000000
	3879534	5320	Scrub-C-Med-All	0.000000
	3879534	5330	Scrub-C-High-All	0.000000
	3879534	5410	Scrub-D-Low-All	0.000000
	3879534	5420	Scrub-D-Med-All	0.000000
	3879534	5430	Scrub-D-High-All	0.000000
	3879534	6110	Grassland-A-Low-All	0.000000
	3879534	6120	Grassland-A-Med-All	0.000000
	3879534	6130	Grassland-A-High-All	0.000000
	3879534	6210	Grassland-B-Low-All	0.000000
	3879534	6220	Grassland-B-Med-All	0.000000
	3879534	6230	Grassland-B-High-All	0.000000
	3879534	6310	Grassland-C-Low-All	0.000000
	3879534	6320	Grassland-C-Med-All	0.000000
	3879534	6330	Grassland-C-High-All	0.000000
	3879534	6410	Grassland-D-Low-All	0.000000
	3879534	6420	Grassland-D-Med-All	0.000000
	3879534	6430	Grassland-D-High-All	0.000000
	3879534	7110	Pasture-A-Low-All	0.000000
	3879534	7120	Pasture-A-Med-All	0.000000
	3879534	7130	Pasture-A-High-All	0.000000
	3879534	7210	Pasture-B-Low-All	0.000000
	3879534	7220	Pasture-B-Med-All	0.000000
	3879534	7230	Pasture-B-High-All	0.000000
	3879534	7310	Pasture-C-Low-All	0.000000
	3879534	7320	Pasture-C-Med-All	0.000000
	3879534	7330	Pasture-C-High-All	0.000000
	3879534	7410	Pasture-D-Low-All	0.000000
	3879534	7420	Pasture-D-Med-All	0.000000
	3879534	7430	Pasture-D-High-All	0.000000
	3879534	8110	Agriculture-A-Low-All	0.000000
	3879534	8120	Agriculture-A-Med-All	0.000000
	3879534	8130	Agriculture-A-High-All	0.000000
	3879534	8210	Agriculture-B-Low-All	0.000000
	3879534	8220	Agriculture-B-Med-All	0.000000
	3879534	8230	Agriculture-B-High-All	0.000000
	3879534	8310	Agriculture-C-Low-All	0.000000
	3879534	8320	Agriculture-C-Med-All	0.000000
	3879534	8330	Agriculture-C-High-All	0.000000
	3879534	8410	Agriculture-D-Low-All	0.000000
	3879534	8420	Agriculture-D-Med-All	0.000000
	3879534	8430	Agriculture-D-High-All	0.000000
	3879534	9000	Water-All-All-All	0.000000
	3879534	10110	Irrigation-A-Low-All	0.000000
	3879534	10120	Irrigation-A-Med-All	0.000000
	3879534	10130	Irrigation-A-High-All	0.000000
	3879534	10210	Irrigation-B-Low-All	0.000000
	3879534	10220	Irrigation-B-Med-All	0.000000
	3879534	10230	Irrigation-B-High-All	0.000000
	3879534	10310	Irrigation-C-Low-All	0.000000
	3879534	10320	Irrigation-C-Med-All	0.000000
	3879534	10330	Irrigation-C-High-All	0.000000
	3879534	10410	Irrigation-D-Low-All	0.000000
	3879534	10420	Irrigation-D-Med-All	0.000000
	3879534	10430	Irrigation-D-High-All	0.000000
	3879536	1000	Developed_Impervious-All-All-All	0.000000
	3879536	2110	Developed_Pervious-A-Low-All	0.000000
	3879536	2120	Developed_Pervious-A-Med-All	0.000000
	3879536	2130	Developed_Pervious-A-High-All	0.000000
	3879536	2210	Developed_Pervious-B-Low-All	0.000000
	3879536	2220	Developed_Pervious-B-Med-All	0.000000
	3879536	2230	Developed_Pervious-B-High-All	0.000000
	3879536	2310	Developed_Pervious-C-Low-All	0.000000
	3879536	2320	Developed_Pervious-C-Med-All	0.000000
	3879536	2330	Developed_Pervious-C-High-All	0.000000
	3879536	2410	Developed_Pervious-D-Low-All	0.000000
	3879536	2420	Developed_Pervious-D-Med-All	0.000000
	3879536	2430	Developed_Pervious-D-High-All	0.000000
	3879536	3110	Barren-A-Low-All	0.000000
	3879536	3120	Barren-A-Med-All	0.000000
	3879536	3130	Barren-A-High-All	0.000000
	3879536	3210	Barren-B-Low-All	0.000000
	3879536	3220	Barren-B-Med-All	0.000000
	3879536	3230	Barren-B-High-All	0.000000
	3879536	3310	Barren-C-Low-All	0.000000
	3879536	3320	Barren-C-Med-All	0.000000
	3879536	3330	Barren-C-High-All	0.000000
	3879536	3410	Barren-D-Low-All	0.000000
	3879536	3420	Barren-D-Med-All	0.000000
	3879536	3430	Barren-D-High-All	0.000000
	3879536	4110	Forest-A-Low-All	0.000000
	3879536	4120	Forest-A-Med-All	0.000000
	3879536	4130	Forest-A-High-All	0.000000
	3879536	4210	Forest-B-Low-All	0.000000
	3879536	4220	Forest-B-Med-All	0.000000
	3879536	4230	Forest-B-High-All	0.000000
	3879536	4310	Forest-C-Low-All	0.000000
	3879536	4320	Forest-C-Med-All	0.000000
	3879536	4330	Forest-C-High-All	0.000000
	3879536	4410	Forest-D-Low-All	0.000000
	3879536	4420	Forest-D-Med-All	0.000000
	3879536	4430	Forest-D-High-All	0.000000
	3879536	5110	Scrub-A-Low-All	0.000000
	3879536	5120	Scrub-A-Med-All	0.000000
	3879536	5130	Scrub-A-High-All	0.000000
	3879536	5210	Scrub-B-Low-All	0.000000
	3879536	5220	Scrub-B-Med-All	0.000000
	3879536	5230	Scrub-B-High-All	0.000000
	3879536	5310	Scrub-C-Low-All	0.000000
	3879536	5320	Scrub-C-Med-All	0.000000
	3879536	5330	Scrub-C-High-All	0.000000
	3879536	5410	Scrub-D-Low-All	0.000000
	3879536	5420	Scrub-D-Med-All	0.000000
	3879536	5430	Scrub-D-High-All	0.000000
	3879536	6110	Grassland-A-Low-All	0.000000
	3879536	6120	Grassland-A-Med-All	0.000000
	3879536	6130	Grassland-A-High-All	0.000000
	3879536	6210	Grassland-B-Low-All	0.000000
	3879536	6220	Grassland-B-Med-All	0.000000
	3879536	6230	Grassland-B-High-All	0.000000
	3879536	6310	Grassland-C-Low-All	0.000000
	3879536	6320	Grassland-C-Med-All	0.000000
	3879536	6330	Grassland-C-High-All	0.000000
	3879536	6410	Grassland-D-Low-All	0.000000
	3879536	6420	Grassland-D-Med-All	0.000000
	3879536	6430	Grassland-D-High-All	0.000000
	3879536	7110	Pasture-A-Low-All	0.000000
	3879536	7120	Pasture-A-Med-All	0.000000
	3879536	7130	Pasture-A-High-All	0.000000
	3879536	7210	Pasture-B-Low-All	0.000000
	3879536	7220	Pasture-B-Med-All	0.000000
	3879536	7230	Pasture-B-High-All	0.000000
	3879536	7310	Pasture-C-Low-All	0.000000
	3879536	7320	Pasture-C-Med-All	0.000000
	3879536	7330	Pasture-C-High-All	0.000000
	3879536	7410	Pasture-D-Low-All	0.000000
	3879536	7420	Pasture-D-Med-All	0.000000
	3879536	7430	Pasture-D-High-All	0.000000
	3879536	8110	Agriculture-A-Low-All	0.000000
	3879536	8120	Agriculture-A-Med-All	0.000000
	3879536	8130	Agriculture-A-High-All	0.000000
	3879536	8210	Agriculture-B-Low-All	0.000000
	3879536	8220	Agriculture-B-Med-All	0.000000
	3879536	8230	Agriculture-B-High-All	0.000000
	3879536	8310	Agriculture-C-Low-All	0.000000
	3879536	8320	Agriculture-C-Med-All	0.000000
	3879536	8330	Agriculture-C-High-All	0.000000
	3879536	8410	Agriculture-D-Low-All	0.000000
	3879536	8420	Agriculture-D-Med-All	0.000000
	3879536	8430	Agriculture-D-High-All	0.000000
	3879536	9000	Water-All-All-All	0.000000
	3879536	10110	Irrigation-A-Low-All	0.000000
	3879536	10120	Irrigation-A-Med-All	0.000000
	3879536	10130	Irrigation-A-High-All	0.000000
	3879536	10210	Irrigation-B-Low-All	0.000000
	3879536	10220	Irrigation-B-Med-All	0.000000
	3879536	10230	Irrigation-B-High-All	0.000000
	3879536	10310	Irrigation-C-Low-All	0.000000
	3879536	10320	Irrigation-C-Med-All	0.000000
	3879536	10330	Irrigation-C-High-All	0.000000
	3879536	10410	Irrigation-D-Low-All	0.000000
	3879536	10420	Irrigation-D-Med-All	0.000000
	3879536	10430	Irrigation-D-High-All	0.000000
	3879552	1000	Developed_Impervious-All-All-All	0.000000
	3879552	2110	Developed_Pervious-A-Low-All	0.000000
	3879552	2120	Developed_Pervious-A-Med-All	0.000000
	3879552	2130	Developed_Pervious-A-High-All	0.000000
	3879552	2210	Developed_Pervious-B-Low-All	0.000000
	3879552	2220	Developed_Pervious-B-Med-All	0.000000
	3879552	2230	Developed_Pervious-B-High-All	0.000000
	3879552	2310	Developed_Pervious-C-Low-All	0.000000
	3879552	2320	Developed_Pervious-C-Med-All	0.000000
	3879552	2330	Developed_Pervious-C-High-All	0.000000
	3879552	2410	Developed_Pervious-D-Low-All	0.000000
	3879552	2420	Developed_Pervious-D-Med-All	0.000000
	3879552	2430	Developed_Pervious-D-High-All	0.000000
	3879552	3110	Barren-A-Low-All	0.000000
	3879552	3120	Barren-A-Med-All	0.000000
	3879552	3130	Barren-A-High-All	0.000000
	3879552	3210	Barren-B-Low-All	0.000000
	3879552	3220	Barren-B-Med-All	0.000000
	3879552	3230	Barren-B-High-All	0.000000
	3879552	3310	Barren-C-Low-All	0.000000
	3879552	3320	Barren-C-Med-All	0.000000
	3879552	3330	Barren-C-High-All	0.000000
	3879552	3410	Barren-D-Low-All	0.000000
	3879552	3420	Barren-D-Med-All	0.000000
	3879552	3430	Barren-D-High-All	0.000000
	3879552	4110	Forest-A-Low-All	0.000000
	3879552	4120	Forest-A-Med-All	0.000000
	3879552	4130	Forest-A-High-All	0.000000
	3879552	4210	Forest-B-Low-All	0.000000
	3879552	4220	Forest-B-Med-All	0.000000
	3879552	4230	Forest-B-High-All	0.000000
	3879552	4310	Forest-C-Low-All	0.000000
	3879552	4320	Forest-C-Med-All	0.000000
	3879552	4330	Forest-C-High-All	0.000000
	3879552	4410	Forest-D-Low-All	0.000000
	3879552	4420	Forest-D-Med-All	0.000000
	3879552	4430	Forest-D-High-All	0.000000
	3879552	5110	Scrub-A-Low-All	0.000000
	3879552	5120	Scrub-A-Med-All	0.000000
	3879552	5130	Scrub-A-High-All	0.000000
	3879552	5210	Scrub-B-Low-All	0.000000
	3879552	5220	Scrub-B-Med-All	0.000000
	3879552	5230	Scrub-B-High-All	0.000000
	3879552	5310	Scrub-C-Low-All	0.000000
	3879552	5320	Scrub-C-Med-All	0.000000
	3879552	5330	Scrub-C-High-All	0.000000
	3879552	5410	Scrub-D-Low-All	0.000000
	3879552	5420	Scrub-D-Med-All	0.000000
	3879552	5430	Scrub-D-High-All	0.000000
	3879552	6110	Grassland-A-Low-All	0.000000
	3879552	6120	Grassland-A-Med-All	0.000000
	3879552	6130	Grassland-A-High-All	0.000000
	3879552	6210	Grassland-B-Low-All	0.000000
	3879552	6220	Grassland-B-Med-All	0.000000
	3879552	6230	Grassland-B-High-All	0.000000
	3879552	6310	Grassland-C-Low-All	0.000000
	3879552	6320	Grassland-C-Med-All	0.000000
	3879552	6330	Grassland-C-High-All	0.000000
	3879552	6410	Grassland-D-Low-All	0.000000
	3879552	6420	Grassland-D-Med-All	0.000000
	3879552	6430	Grassland-D-High-All	0.000000
	3879552	7110	Pasture-A-Low-All	0.000000
	3879552	7120	Pasture-A-Med-All	0.000000
	3879552	7130	Pasture-A-High-All	0.000000
	3879552	7210	Pasture-B-Low-All	0.000000
	3879552	7220	Pasture-B-Med-All	0.000000
	3879552	7230	Pasture-B-High-All	0.000000
	3879552	7310	Pasture-C-Low-All	0.000000
	3879552	7320	Pasture-C-Med-All	0.000000
	3879552	7330	Pasture-C-High-All	0.000000
	3879552	7410	Pasture-D-Low-All	0.000000
	3879552	7420	Pasture-D-Med-All	0.000000
	3879552	7430	Pasture-D-High-All	0.000000
	3879552	8110	Agriculture-A-Low-All	0.000000
	3879552	8120	Agriculture-A-Med-All	0.000000
	3879552	8130	Agriculture-A-High-All	0.000000
	3879552	8210	Agriculture-B-Low-All	0.000000
	3879552	8220	Agriculture-B-Med-All	0.000000
	3879552	8230	Agriculture-B-High-All	0.000000
	3879552	8310	Agriculture-C-Low-All	0.000000
	3879552	8320	Agriculture-C-Med-All	0.000000
	3879552	8330	Agriculture-C-High-All	0.000000
	3879552	8410	Agriculture-D-Low-All	0.000000
	3879552	8420	Agriculture-D-Med-All	0.000000
	3879552	8430	Agriculture-D-High-All	0.000000
	3879552	9000	Water-All-All-All	0.000000
	3879552	10110	Irrigation-A-Low-All	0.000000
	3879552	10120	Irrigation-A-Med-All	0.000000
	3879552	10130	Irrigation-A-High-All	0.000000
	3879552	10210	Irrigation-B-Low-All	0.000000
	3879552	10220	Irrigation-B-Med-All	0.000000
	3879552	10230	Irrigation-B-High-All	0.000000
	3879552	10310	Irrigation-C-Low-All	0.000000
	3879552	10320	Irrigation-C-Med-All	0.000000
	3879552	10330	Irrigation-C-High-All	0.000000
	3879552	10410	Irrigation-D-Low-All	0.000000
	3879552	10420	Irrigation-D-Med-All	0.000000
	3879552	10430	Irrigation-D-High-All	0.000000
	3879554	1000	Developed_Impervious-All-All-All	0.000000
	3879554	2110	Developed_Pervious-A-Low-All	0.000000
	3879554	2120	Developed_Pervious-A-Med-All	0.000000
	3879554	2130	Developed_Pervious-A-High-All	0.000000
	3879554	2210	Developed_Pervious-B-Low-All	0.000000
	3879554	2220	Developed_Pervious-B-Med-All	0.000000
	3879554	2230	Developed_Pervious-B-High-All	0.000000
	3879554	2310	Developed_Pervious-C-Low-All	0.000000
	3879554	2320	Developed_Pervious-C-Med-All	0.000000
	3879554	2330	Developed_Pervious-C-High-All	0.000000
	3879554	2410	Developed_Pervious-D-Low-All	0.000000
	3879554	2420	Developed_Pervious-D-Med-All	0.000000
	3879554	2430	Developed_Pervious-D-High-All	0.000000
	3879554	3110	Barren-A-Low-All	0.000000
	3879554	3120	Barren-A-Med-All	0.000000
	3879554	3130	Barren-A-High-All	0.000000
	3879554	3210	Barren-B-Low-All	0.000000
	3879554	3220	Barren-B-Med-All	0.000000
	3879554	3230	Barren-B-High-All	0.000000
	3879554	3310	Barren-C-Low-All	0.000000
	3879554	3320	Barren-C-Med-All	0.000000
	3879554	3330	Barren-C-High-All	0.000000
	3879554	3410	Barren-D-Low-All	0.000000
	3879554	3420	Barren-D-Med-All	0.000000
	3879554	3430	Barren-D-High-All	0.000000
	3879554	4110	Forest-A-Low-All	0.000000
	3879554	4120	Forest-A-Med-All	0.000000
	3879554	4130	Forest-A-High-All	0.000000
	3879554	4210	Forest-B-Low-All	0.000000
	3879554	4220	Forest-B-Med-All	0.000000
	3879554	4230	Forest-B-High-All	0.000000
	3879554	4310	Forest-C-Low-All	0.000000
	3879554	4320	Forest-C-Med-All	0.000000
	3879554	4330	Forest-C-High-All	0.000000
	3879554	4410	Forest-D-Low-All	0.000000
	3879554	4420	Forest-D-Med-All	0.000000
	3879554	4430	Forest-D-High-All	0.000000
	3879554	5110	Scrub-A-Low-All	0.000000
	3879554	5120	Scrub-A-Med-All	0.000000
	3879554	5130	Scrub-A-High-All	0.000000
	3879554	5210	Scrub-B-Low-All	0.000000
	3879554	5220	Scrub-B-Med-All	0.000000
	3879554	5230	Scrub-B-High-All	0.000000
	3879554	5310	Scrub-C-Low-All	0.000000
	3879554	5320	Scrub-C-Med-All	0.000000
	3879554	5330	Scrub-C-High-All	0.000000
	3879554	5410	Scrub-D-Low-All	0.000000
	3879554	5420	Scrub-D-Med-All	0.000000
	3879554	5430	Scrub-D-High-All	0.000000
	3879554	6110	Grassland-A-Low-All	0.000000
	3879554	6120	Grassland-A-Med-All	0.000000
	3879554	6130	Grassland-A-High-All	0.000000
	3879554	6210	Grassland-B-Low-All	0.000000
	3879554	6220	Grassland-B-Med-All	0.000000
	3879554	6230	Grassland-B-High-All	0.000000
	3879554	6310	Grassland-C-Low-All	0.000000
	3879554	6320	Grassland-C-Med-All	0.000000
	3879554	6330	Grassland-C-High-All	0.000000
	3879554	6410	Grassland-D-Low-All	0.000000
	3879554	6420	Grassland-D-Med-All	0.000000
	3879554	6430	Grassland-D-High-All	0.000000
	3879554	7110	Pasture-A-Low-All	0.000000
	3879554	7120	Pasture-A-Med-All	0.000000
	3879554	7130	Pasture-A-High-All	0.000000
	3879554	7210	Pasture-B-Low-All	0.000000
	3879554	7220	Pasture-B-Med-All	0.000000
	3879554	7230	Pasture-B-High-All	0.000000
	3879554	7310	Pasture-C-Low-All	0.000000
	3879554	7320	Pasture-C-Med-All	0.000000
	3879554	7330	Pasture-C-High-All	0.000000
	3879554	7410	Pasture-D-Low-All	0.000000
	3879554	7420	Pasture-D-Med-All	0.000000
	3879554	7430	Pasture-D-High-All	0.000000
	3879554	8110	Agriculture-A-Low-All	0.000000
	3879554	8120	Agriculture-A-Med-All	0.000000
	3879554	8130	Agriculture-A-High-All	0.000000
	3879554	8210	Agriculture-B-Low-All	0.000000
	3879554	8220	Agriculture-B-Med-All	0.000000
	3879554	8230	Agriculture-B-High-All	0.000000
	3879554	8310	Agriculture-C-Low-All	0.000000
	3879554	8320	Agriculture-C-Med-All	0.000000
	3879554	8330	Agriculture-C-High-All	0.000000
	3879554	8410	Agriculture-D-Low-All	0.000000
	3879554	8420	Agriculture-D-Med-All	0.000000
	3879554	8430	Agriculture-D-High-All	0.000000
	3879554	9000	Water-All-All-All	0.000000
	3879554	10110	Irrigation-A-Low-All	0.000000
	3879554	10120	Irrigation-A-Med-All	0.000000
	3879554	10130	Irrigation-A-High-All	0.000000
	3879554	10210	Irrigation-B-Low-All	0.000000
	3879554	10220	Irrigation-B-Med-All	0.000000
	3879554	10230	Irrigation-B-High-All	0.000000
	3879554	10310	Irrigation-C-Low-All	0.000000
	3879554	10320	Irrigation-C-Med-All	0.000000
	3879554	10330	Irrigation-C-High-All	0.000000
	3879554	10410	Irrigation-D-Low-All	0.000000
	3879554	10420	Irrigation-D-Med-All	0.000000
	3879554	10430	Irrigation-D-High-All	0.000000
	3879556	1000	Developed_Impervious-All-All-All	0.000000
	3879556	2110	Developed_Pervious-A-Low-All	0.000000
	3879556	2120	Developed_Pervious-A-Med-All	0.000000
	3879556	2130	Developed_Pervious-A-High-All	0.000000
	3879556	2210	Developed_Pervious-B-Low-All	0.000000
	3879556	2220	Developed_Pervious-B-Med-All	0.000000
	3879556	2230	Developed_Pervious-B-High-All	0.000000
	3879556	2310	Developed_Pervious-C-Low-All	0.000000
	3879556	2320	Developed_Pervious-C-Med-All	0.000000
	3879556	2330	Developed_Pervious-C-High-All	0.000000
	3879556	2410	Developed_Pervious-D-Low-All	0.000000
	3879556	2420	Developed_Pervious-D-Med-All	0.000000
	3879556	2430	Developed_Pervious-D-High-All	0.000000
	3879556	3110	Barren-A-Low-All	0.000000
	3879556	3120	Barren-A-Med-All	0.000000
	3879556	3130	Barren-A-High-All	0.000000
	3879556	3210	Barren-B-Low-All	0.000000
	3879556	3220	Barren-B-Med-All	0.000000
	3879556	3230	Barren-B-High-All	0.000000
	3879556	3310	Barren-C-Low-All	0.000000
	3879556	3320	Barren-C-Med-All	0.000000
	3879556	3330	Barren-C-High-All	0.000000
	3879556	3410	Barren-D-Low-All	0.000000
	3879556	3420	Barren-D-Med-All	0.000000
	3879556	3430	Barren-D-High-All	0.000000
	3879556	4110	Forest-A-Low-All	0.000000
	3879556	4120	Forest-A-Med-All	0.000000
	3879556	4130	Forest-A-High-All	0.000000
	3879556	4210	Forest-B-Low-All	0.000000
	3879556	4220	Forest-B-Med-All	0.000000
	3879556	4230	Forest-B-High-All	0.000000
	3879556	4310	Forest-C-Low-All	0.000000
	3879556	4320	Forest-C-Med-All	0.000000
	3879556	4330	Forest-C-High-All	0.000000
	3879556	4410	Forest-D-Low-All	0.000000
	3879556	4420	Forest-D-Med-All	0.000000
	3879556	4430	Forest-D-High-All	0.000000
	3879556	5110	Scrub-A-Low-All	0.000000
	3879556	5120	Scrub-A-Med-All	0.000000
	3879556	5130	Scrub-A-High-All	0.000000
	3879556	5210	Scrub-B-Low-All	0.000000
	3879556	5220	Scrub-B-Med-All	0.000000
	3879556	5230	Scrub-B-High-All	0.000000
	3879556	5310	Scrub-C-Low-All	0.000000
	3879556	5320	Scrub-C-Med-All	0.000000
	3879556	5330	Scrub-C-High-All	0.000000
	3879556	5410	Scrub-D-Low-All	0.000000
	3879556	5420	Scrub-D-Med-All	0.000000
	3879556	5430	Scrub-D-High-All	0.000000
	3879556	6110	Grassland-A-Low-All	0.000000
	3879556	6120	Grassland-A-Med-All	0.000000
	3879556	6130	Grassland-A-High-All	0.000000
	3879556	6210	Grassland-B-Low-All	0.000000
	3879556	6220	Grassland-B-Med-All	0.000000
	3879556	6230	Grassland-B-High-All	0.000000
	3879556	6310	Grassland-C-Low-All	0.000000
	3879556	6320	Grassland-C-Med-All	0.000000
	3879556	6330	Grassland-C-High-All	0.000000
	3879556	6410	Grassland-D-Low-All	0.000000
	3879556	6420	Grassland-D-Med-All	0.000000
	3879556	6430	Grassland-D-High-All	0.000000
	3879556	7110	Pasture-A-Low-All	0.000000
	3879556	7120	Pasture-A-Med-All	0.000000
	3879556	7130	Pasture-A-High-All	0.000000
	3879556	7210	Pasture-B-Low-All	0.000000
	3879556	7220	Pasture-B-Med-All	0.000000
	3879556	7230	Pasture-B-High-All	0.000000
	3879556	7310	Pasture-C-Low-All	0.000000
	3879556	7320	Pasture-C-Med-All	0.000000
	3879556	7330	Pasture-C-High-All	0.000000
	3879556	7410	Pasture-D-Low-All	0.000000
	3879556	7420	Pasture-D-Med-All	0.000000
	3879556	7430	Pasture-D-High-All	0.000000
	3879556	8110	Agriculture-A-Low-All	0.000000
	3879556	8120	Agriculture-A-Med-All	0.000000
	3879556	8130	Agriculture-A-High-All	0.000000
	3879556	8210	Agriculture-B-Low-All	0.000000
	3879556	8220	Agriculture-B-Med-All	0.000000
	3879556	8230	Agriculture-B-High-All	0.000000
	3879556	8310	Agriculture-C-Low-All	0.000000
	3879556	8320	Agriculture-C-Med-All	0.000000
	3879556	8330	Agriculture-C-High-All	0.000000
	3879556	8410	Agriculture-D-Low-All	0.000000
	3879556	8420	Agriculture-D-Med-All	0.000000
	3879556	8430	Agriculture-D-High-All	0.000000
	3879556	9000	Water-All-All-All	0.000000
	3879556	10110	Irrigation-A-Low-All	0.000000
	3879556	10120	Irrigation-A-Med-All	0.000000
	3879556	10130	Irrigation-A-High-All	0.000000
	3879556	10210	Irrigation-B-Low-All	0.000000
	3879556	10220	Irrigation-B-Med-All	0.000000
	3879556	10230	Irrigation-B-High-All	0.000000
	3879556	10310	Irrigation-C-Low-All	0.000000
	3879556	10320	Irrigation-C-Med-All	0.000000
	3879556	10330	Irrigation-C-High-All	0.000000
	3879556	10410	Irrigation-D-Low-All	0.000000
	3879556	10420	Irrigation-D-Med-All	0.000000
	3879556	10430	Irrigation-D-High-All	0.000000
	3879558	1000	Developed_Impervious-All-All-All	0.000000
	3879558	2110	Developed_Pervious-A-Low-All	0.000000
	3879558	2120	Developed_Pervious-A-Med-All	0.000000
	3879558	2130	Developed_Pervious-A-High-All	0.000000
	3879558	2210	Developed_Pervious-B-Low-All	0.000000
	3879558	2220	Developed_Pervious-B-Med-All	0.000000
	3879558	2230	Developed_Pervious-B-High-All	0.000000
	3879558	2310	Developed_Pervious-C-Low-All	0.000000
	3879558	2320	Developed_Pervious-C-Med-All	0.000000
	3879558	2330	Developed_Pervious-C-High-All	0.000000
	3879558	2410	Developed_Pervious-D-Low-All	0.000000
	3879558	2420	Developed_Pervious-D-Med-All	0.000000
	3879558	2430	Developed_Pervious-D-High-All	0.000000
	3879558	3110	Barren-A-Low-All	0.000000
	3879558	3120	Barren-A-Med-All	0.000000
	3879558	3130	Barren-A-High-All	0.000000
	3879558	3210	Barren-B-Low-All	0.000000
	3879558	3220	Barren-B-Med-All	0.000000
	3879558	3230	Barren-B-High-All	0.000000
	3879558	3310	Barren-C-Low-All	0.000000
	3879558	3320	Barren-C-Med-All	0.000000
	3879558	3330	Barren-C-High-All	0.000000
	3879558	3410	Barren-D-Low-All	0.000000
	3879558	3420	Barren-D-Med-All	0.000000
	3879558	3430	Barren-D-High-All	0.000000
	3879558	4110	Forest-A-Low-All	0.000000
	3879558	4120	Forest-A-Med-All	0.000000
	3879558	4130	Forest-A-High-All	0.000000
	3879558	4210	Forest-B-Low-All	0.000000
	3879558	4220	Forest-B-Med-All	0.000000
	3879558	4230	Forest-B-High-All	0.000000
	3879558	4310	Forest-C-Low-All	0.000000
	3879558	4320	Forest-C-Med-All	0.000000
	3879558	4330	Forest-C-High-All	0.000000
	3879558	4410	Forest-D-Low-All	0.000000
	3879558	4420	Forest-D-Med-All	0.000000
	3879558	4430	Forest-D-High-All	0.000000
	3879558	5110	Scrub-A-Low-All	0.000000
	3879558	5120	Scrub-A-Med-All	0.000000
	3879558	5130	Scrub-A-High-All	0.000000
	3879558	5210	Scrub-B-Low-All	0.000000
	3879558	5220	Scrub-B-Med-All	0.000000
	3879558	5230	Scrub-B-High-All	0.000000
	3879558	5310	Scrub-C-Low-All	0.000000
	3879558	5320	Scrub-C-Med-All	0.000000
	3879558	5330	Scrub-C-High-All	0.000000
	3879558	5410	Scrub-D-Low-All	0.000000
	3879558	5420	Scrub-D-Med-All	0.000000
	3879558	5430	Scrub-D-High-All	0.000000
	3879558	6110	Grassland-A-Low-All	0.000000
	3879558	6120	Grassland-A-Med-All	0.000000
	3879558	6130	Grassland-A-High-All	0.000000
	3879558	6210	Grassland-B-Low-All	0.000000
	3879558	6220	Grassland-B-Med-All	0.000000
	3879558	6230	Grassland-B-High-All	0.000000
	3879558	6310	Grassland-C-Low-All	0.000000
	3879558	6320	Grassland-C-Med-All	0.000000
	3879558	6330	Grassland-C-High-All	0.000000
	3879558	6410	Grassland-D-Low-All	0.000000
	3879558	6420	Grassland-D-Med-All	0.000000
	3879558	6430	Grassland-D-High-All	0.000000
	3879558	7110	Pasture-A-Low-All	0.000000
	3879558	7120	Pasture-A-Med-All	0.000000
	3879558	7130	Pasture-A-High-All	0.000000
	3879558	7210	Pasture-B-Low-All	0.000000
	3879558	7220	Pasture-B-Med-All	0.000000
	3879558	7230	Pasture-B-High-All	0.000000
	3879558	7310	Pasture-C-Low-All	0.000000
	3879558	7320	Pasture-C-Med-All	0.000000
	3879558	7330	Pasture-C-High-All	0.000000
	3879558	7410	Pasture-D-Low-All	0.000000
	3879558	7420	Pasture-D-Med-All	0.000000
	3879558	7430	Pasture-D-High-All	0.000000
	3879558	8110	Agriculture-A-Low-All	0.000000
	3879558	8120	Agriculture-A-Med-All	0.000000
	3879558	8130	Agriculture-A-High-All	0.000000
	3879558	8210	Agriculture-B-Low-All	0.000000
	3879558	8220	Agriculture-B-Med-All	0.000000
	3879558	8230	Agriculture-B-High-All	0.000000
	3879558	8310	Agriculture-C-Low-All	0.000000
	3879558	8320	Agriculture-C-Med-All	0.000000
	3879558	8330	Agriculture-C-High-All	0.000000
	3879558	8410	Agriculture-D-Low-All	0.000000
	3879558	8420	Agriculture-D-Med-All	0.000000
	3879558	8430	Agriculture-D-High-All	0.000000
	3879558	9000	Water-All-All-All	0.000000
	3879558	10110	Irrigation-A-Low-All	0.000000
	3879558	10120	Irrigation-A-Med-All	0.000000
	3879558	10130	Irrigation-A-High-All	0.000000
	3879558	10210	Irrigation-B-Low-All	0.000000
	3879558	10220	Irrigation-B-Med-All	0.000000
	3879558	10230	Irrigation-B-High-All	0.000000
	3879558	10310	Irrigation-C-Low-All	0.000000
	3879558	10320	Irrigation-C-Med-All	0.000000
	3879558	10330	Irrigation-C-High-All	0.000000
	3879558	10410	Irrigation-D-Low-All	0.000000
	3879558	10420	Irrigation-D-Med-All	0.000000
	3879558	10430	Irrigation-D-High-All	0.000000
	3879560	1000	Developed_Impervious-All-All-All	0.000000
	3879560	2110	Developed_Pervious-A-Low-All	0.000000
	3879560	2120	Developed_Pervious-A-Med-All	0.000000
	3879560	2130	Developed_Pervious-A-High-All	0.000000
	3879560	2210	Developed_Pervious-B-Low-All	0.000000
	3879560	2220	Developed_Pervious-B-Med-All	0.000000
	3879560	2230	Developed_Pervious-B-High-All	0.000000
	3879560	2310	Developed_Pervious-C-Low-All	0.000000
	3879560	2320	Developed_Pervious-C-Med-All	0.000000
	3879560	2330	Developed_Pervious-C-High-All	0.000000
	3879560	2410	Developed_Pervious-D-Low-All	0.000000
	3879560	2420	Developed_Pervious-D-Med-All	0.000000
	3879560	2430	Developed_Pervious-D-High-All	0.000000
	3879560	3110	Barren-A-Low-All	0.000000
	3879560	3120	Barren-A-Med-All	0.000000
	3879560	3130	Barren-A-High-All	0.000000
	3879560	3210	Barren-B-Low-All	0.000000
	3879560	3220	Barren-B-Med-All	0.000000
	3879560	3230	Barren-B-High-All	0.000000
	3879560	3310	Barren-C-Low-All	0.000000
	3879560	3320	Barren-C-Med-All	0.000000
	3879560	3330	Barren-C-High-All	0.000000
	3879560	3410	Barren-D-Low-All	0.000000
	3879560	3420	Barren-D-Med-All	0.000000
	3879560	3430	Barren-D-High-All	0.000000
	3879560	4110	Forest-A-Low-All	0.000000
	3879560	4120	Forest-A-Med-All	0.000000
	3879560	4130	Forest-A-High-All	0.000000
	3879560	4210	Forest-B-Low-All	0.000000
	3879560	4220	Forest-B-Med-All	0.000000
	3879560	4230	Forest-B-High-All	0.000000
	3879560	4310	Forest-C-Low-All	0.000000
	3879560	4320	Forest-C-Med-All	0.000000
	3879560	4330	Forest-C-High-All	0.000000
	3879560	4410	Forest-D-Low-All	0.000000
	3879560	4420	Forest-D-Med-All	0.000000
	3879560	4430	Forest-D-High-All	0.000000
	3879560	5110	Scrub-A-Low-All	0.000000
	3879560	5120	Scrub-A-Med-All	0.000000
	3879560	5130	Scrub-A-High-All	0.000000
	3879560	5210	Scrub-B-Low-All	0.000000
	3879560	5220	Scrub-B-Med-All	0.000000
	3879560	5230	Scrub-B-High-All	0.000000
	3879560	5310	Scrub-C-Low-All	0.000000
	3879560	5320	Scrub-C-Med-All	0.000000
	3879560	5330	Scrub-C-High-All	0.000000
	3879560	5410	Scrub-D-Low-All	0.000000
	3879560	5420	Scrub-D-Med-All	0.000000
	3879560	5430	Scrub-D-High-All	0.000000
	3879560	6110	Grassland-A-Low-All	0.000000
	3879560	6120	Grassland-A-Med-All	0.000000
	3879560	6130	Grassland-A-High-All	0.000000
	3879560	6210	Grassland-B-Low-All	0.000000
	3879560	6220	Grassland-B-Med-All	0.000000
	3879560	6230	Grassland-B-High-All	0.000000
	3879560	6310	Grassland-C-Low-All	0.000000
	3879560	6320	Grassland-C-Med-All	0.000000
	3879560	6330	Grassland-C-High-All	0.000000
	3879560	6410	Grassland-D-Low-All	0.000000
	3879560	6420	Grassland-D-Med-All	0.000000
	3879560	6430	Grassland-D-High-All	0.000000
	3879560	7110	Pasture-A-Low-All	0.000000
	3879560	7120	Pasture-A-Med-All	0.000000
	3879560	7130	Pasture-A-High-All	0.000000
	3879560	7210	Pasture-B-Low-All	0.000000
	3879560	7220	Pasture-B-Med-All	0.000000
	3879560	7230	Pasture-B-High-All	0.000000
	3879560	7310	Pasture-C-Low-All	0.000000
	3879560	7320	Pasture-C-Med-All	0.000000
	3879560	7330	Pasture-C-High-All	0.000000
	3879560	7410	Pasture-D-Low-All	0.000000
	3879560	7420	Pasture-D-Med-All	0.000000
	3879560	7430	Pasture-D-High-All	0.000000
	3879560	8110	Agriculture-A-Low-All	0.000000
	3879560	8120	Agriculture-A-Med-All	0.000000
	3879560	8130	Agriculture-A-High-All	0.000000
	3879560	8210	Agriculture-B-Low-All	0.000000
	3879560	8220	Agriculture-B-Med-All	0.000000
	3879560	8230	Agriculture-B-High-All	0.000000
	3879560	8310	Agriculture-C-Low-All	0.000000
	3879560	8320	Agriculture-C-Med-All	0.000000
	3879560	8330	Agriculture-C-High-All	0.000000
	3879560	8410	Agriculture-D-Low-All	0.000000
	3879560	8420	Agriculture-D-Med-All	0.000000
	3879560	8430	Agriculture-D-High-All	0.000000
	3879560	9000	Water-All-All-All	0.000000
	3879560	10110	Irrigation-A-Low-All	0.000000
	3879560	10120	Irrigation-A-Med-All	0.000000
	3879560	10130	Irrigation-A-High-All	0.000000
	3879560	10210	Irrigation-B-Low-All	0.000000
	3879560	10220	Irrigation-B-Med-All	0.000000
	3879560	10230	Irrigation-B-High-All	0.000000
	3879560	10310	Irrigation-C-Low-All	0.000000
	3879560	10320	Irrigation-C-Med-All	0.000000
	3879560	10330	Irrigation-C-High-All	0.000000
	3879560	10410	Irrigation-D-Low-All	0.000000
	3879560	10420	Irrigation-D-Med-All	0.000000
	3879560	10430	Irrigation-D-High-All	0.000000
	3879562	1000	Developed_Impervious-All-All-All	0.000000
	3879562	2110	Developed_Pervious-A-Low-All	0.000000
	3879562	2120	Developed_Pervious-A-Med-All	0.000000
	3879562	2130	Developed_Pervious-A-High-All	0.000000
	3879562	2210	Developed_Pervious-B-Low-All	0.000000
	3879562	2220	Developed_Pervious-B-Med-All	0.000000
	3879562	2230	Developed_Pervious-B-High-All	0.000000
	3879562	2310	Developed_Pervious-C-Low-All	0.000000
	3879562	2320	Developed_Pervious-C-Med-All	0.000000
	3879562	2330	Developed_Pervious-C-High-All	0.000000
	3879562	2410	Developed_Pervious-D-Low-All	0.000000
	3879562	2420	Developed_Pervious-D-Med-All	0.000000
	3879562	2430	Developed_Pervious-D-High-All	0.000000
	3879562	3110	Barren-A-Low-All	0.000000
	3879562	3120	Barren-A-Med-All	0.000000
	3879562	3130	Barren-A-High-All	0.000000
	3879562	3210	Barren-B-Low-All	0.000000
	3879562	3220	Barren-B-Med-All	0.000000
	3879562	3230	Barren-B-High-All	0.000000
	3879562	3310	Barren-C-Low-All	0.000000
	3879562	3320	Barren-C-Med-All	0.000000
	3879562	3330	Barren-C-High-All	0.000000
	3879562	3410	Barren-D-Low-All	0.000000
	3879562	3420	Barren-D-Med-All	0.000000
	3879562	3430	Barren-D-High-All	0.000000
	3879562	4110	Forest-A-Low-All	0.000000
	3879562	4120	Forest-A-Med-All	0.000000
	3879562	4130	Forest-A-High-All	0.000000
	3879562	4210	Forest-B-Low-All	0.000000
	3879562	4220	Forest-B-Med-All	0.000000
	3879562	4230	Forest-B-High-All	0.000000
	3879562	4310	Forest-C-Low-All	0.000000
	3879562	4320	Forest-C-Med-All	0.000000
	3879562	4330	Forest-C-High-All	0.000000
	3879562	4410	Forest-D-Low-All	0.000000
	3879562	4420	Forest-D-Med-All	0.000000
	3879562	4430	Forest-D-High-All	0.000000
	3879562	5110	Scrub-A-Low-All	0.000000
	3879562	5120	Scrub-A-Med-All	0.000000
	3879562	5130	Scrub-A-High-All	0.000000
	3879562	5210	Scrub-B-Low-All	0.000000
	3879562	5220	Scrub-B-Med-All	0.000000
	3879562	5230	Scrub-B-High-All	0.000000
	3879562	5310	Scrub-C-Low-All	0.000000
	3879562	5320	Scrub-C-Med-All	0.000000
	3879562	5330	Scrub-C-High-All	0.000000
	3879562	5410	Scrub-D-Low-All	0.000000
	3879562	5420	Scrub-D-Med-All	0.000000
	3879562	5430	Scrub-D-High-All	0.000000
	3879562	6110	Grassland-A-Low-All	0.000000
	3879562	6120	Grassland-A-Med-All	0.000000
	3879562	6130	Grassland-A-High-All	0.000000
	3879562	6210	Grassland-B-Low-All	0.000000
	3879562	6220	Grassland-B-Med-All	0.000000
	3879562	6230	Grassland-B-High-All	0.000000
	3879562	6310	Grassland-C-Low-All	0.000000
	3879562	6320	Grassland-C-Med-All	0.000000
	3879562	6330	Grassland-C-High-All	0.000000
	3879562	6410	Grassland-D-Low-All	0.000000
	3879562	6420	Grassland-D-Med-All	0.000000
	3879562	6430	Grassland-D-High-All	0.000000
	3879562	7110	Pasture-A-Low-All	0.000000
	3879562	7120	Pasture-A-Med-All	0.000000
	3879562	7130	Pasture-A-High-All	0.000000
	3879562	7210	Pasture-B-Low-All	0.000000
	3879562	7220	Pasture-B-Med-All	0.000000
	3879562	7230	Pasture-B-High-All	0.000000
	3879562	7310	Pasture-C-Low-All	0.000000
	3879562	7320	Pasture-C-Med-All	0.000000
	3879562	7330	Pasture-C-High-All	0.000000
	3879562	7410	Pasture-D-Low-All	0.000000
	3879562	7420	Pasture-D-Med-All	0.000000
	3879562	7430	Pasture-D-High-All	0.000000
	3879562	8110	Agriculture-A-Low-All	0.000000
	3879562	8120	Agriculture-A-Med-All	0.000000
	3879562	8130	Agriculture-A-High-All	0.000000
	3879562	8210	Agriculture-B-Low-All	0.000000
	3879562	8220	Agriculture-B-Med-All	0.000000
	3879562	8230	Agriculture-B-High-All	0.000000
	3879562	8310	Agriculture-C-Low-All	0.000000
	3879562	8320	Agriculture-C-Med-All	0.000000
	3879562	8330	Agriculture-C-High-All	0.000000
	3879562	8410	Agriculture-D-Low-All	0.000000
	3879562	8420	Agriculture-D-Med-All	0.000000
	3879562	8430	Agriculture-D-High-All	0.000000
	3879562	9000	Water-All-All-All	0.000000
	3879562	10110	Irrigation-A-Low-All	0.000000
	3879562	10120	Irrigation-A-Med-All	0.000000
	3879562	10130	Irrigation-A-High-All	0.000000
	3879562	10210	Irrigation-B-Low-All	0.000000
	3879562	10220	Irrigation-B-Med-All	0.000000
	3879562	10230	Irrigation-B-High-All	0.000000
	3879562	10310	Irrigation-C-Low-All	0.000000
	3879562	10320	Irrigation-C-Med-All	0.000000
	3879562	10330	Irrigation-C-High-All	0.000000
	3879562	10410	Irrigation-D-Low-All	0.000000
	3879562	10420	Irrigation-D-Med-All	0.000000
	3879562	10430	Irrigation-D-High-All	0.000000
	3879564	1000	Developed_Impervious-All-All-All	0.000000
	3879564	2110	Developed_Pervious-A-Low-All	0.000000
	3879564	2120	Developed_Pervious-A-Med-All	0.000000
	3879564	2130	Developed_Pervious-A-High-All	0.000000
	3879564	2210	Developed_Pervious-B-Low-All	0.000000
	3879564	2220	Developed_Pervious-B-Med-All	0.000000
	3879564	2230	Developed_Pervious-B-High-All	0.000000
	3879564	2310	Developed_Pervious-C-Low-All	0.000000
	3879564	2320	Developed_Pervious-C-Med-All	0.000000
	3879564	2330	Developed_Pervious-C-High-All	0.000000
	3879564	2410	Developed_Pervious-D-Low-All	0.000000
	3879564	2420	Developed_Pervious-D-Med-All	0.000000
	3879564	2430	Developed_Pervious-D-High-All	0.000000
	3879564	3110	Barren-A-Low-All	0.000000
	3879564	3120	Barren-A-Med-All	0.000000
	3879564	3130	Barren-A-High-All	0.000000
	3879564	3210	Barren-B-Low-All	0.000000
	3879564	3220	Barren-B-Med-All	0.000000
	3879564	3230	Barren-B-High-All	0.000000
	3879564	3310	Barren-C-Low-All	0.000000
	3879564	3320	Barren-C-Med-All	0.000000
	3879564	3330	Barren-C-High-All	0.000000
	3879564	3410	Barren-D-Low-All	0.000000
	3879564	3420	Barren-D-Med-All	0.000000
	3879564	3430	Barren-D-High-All	0.000000
	3879564	4110	Forest-A-Low-All	0.000000
	3879564	4120	Forest-A-Med-All	0.000000
	3879564	4130	Forest-A-High-All	0.000000
	3879564	4210	Forest-B-Low-All	0.000000
	3879564	4220	Forest-B-Med-All	0.000000
	3879564	4230	Forest-B-High-All	0.000000
	3879564	4310	Forest-C-Low-All	0.000000
	3879564	4320	Forest-C-Med-All	0.000000
	3879564	4330	Forest-C-High-All	0.000000
	3879564	4410	Forest-D-Low-All	0.000000
	3879564	4420	Forest-D-Med-All	0.000000
	3879564	4430	Forest-D-High-All	0.000000
	3879564	5110	Scrub-A-Low-All	0.000000
	3879564	5120	Scrub-A-Med-All	0.000000
	3879564	5130	Scrub-A-High-All	0.000000
	3879564	5210	Scrub-B-Low-All	0.000000
	3879564	5220	Scrub-B-Med-All	0.000000
	3879564	5230	Scrub-B-High-All	0.000000
	3879564	5310	Scrub-C-Low-All	0.000000
	3879564	5320	Scrub-C-Med-All	0.000000
	3879564	5330	Scrub-C-High-All	0.000000
	3879564	5410	Scrub-D-Low-All	0.000000
	3879564	5420	Scrub-D-Med-All	0.000000
	3879564	5430	Scrub-D-High-All	0.000000
	3879564	6110	Grassland-A-Low-All	0.000000
	3879564	6120	Grassland-A-Med-All	0.000000
	3879564	6130	Grassland-A-High-All	0.000000
	3879564	6210	Grassland-B-Low-All	0.000000
	3879564	6220	Grassland-B-Med-All	0.000000
	3879564	6230	Grassland-B-High-All	0.000000
	3879564	6310	Grassland-C-Low-All	0.000000
	3879564	6320	Grassland-C-Med-All	0.000000
	3879564	6330	Grassland-C-High-All	0.000000
	3879564	6410	Grassland-D-Low-All	0.000000
	3879564	6420	Grassland-D-Med-All	0.000000
	3879564	6430	Grassland-D-High-All	0.000000
	3879564	7110	Pasture-A-Low-All	0.000000
	3879564	7120	Pasture-A-Med-All	0.000000
	3879564	7130	Pasture-A-High-All	0.000000
	3879564	7210	Pasture-B-Low-All	0.000000
	3879564	7220	Pasture-B-Med-All	0.000000
	3879564	7230	Pasture-B-High-All	0.000000
	3879564	7310	Pasture-C-Low-All	0.000000
	3879564	7320	Pasture-C-Med-All	0.000000
	3879564	7330	Pasture-C-High-All	0.000000
	3879564	7410	Pasture-D-Low-All	0.000000
	3879564	7420	Pasture-D-Med-All	0.000000
	3879564	7430	Pasture-D-High-All	0.000000
	3879564	8110	Agriculture-A-Low-All	0.000000
	3879564	8120	Agriculture-A-Med-All	0.000000
	3879564	8130	Agriculture-A-High-All	0.000000
	3879564	8210	Agriculture-B-Low-All	0.000000
	3879564	8220	Agriculture-B-Med-All	0.000000
	3879564	8230	Agriculture-B-High-All	0.000000
	3879564	8310	Agriculture-C-Low-All	0.000000
	3879564	8320	Agriculture-C-Med-All	0.000000
	3879564	8330	Agriculture-C-High-All	0.000000
	3879564	8410	Agriculture-D-Low-All	0.000000
	3879564	8420	Agriculture-D-Med-All	0.000000
	3879564	8430	Agriculture-D-High-All	0.000000
	3879564	9000	Water-All-All-All	0.000000
	3879564	10110	Irrigation-A-Low-All	0.000000
	3879564	10120	Irrigation-A-Med-All	0.000000
	3879564	10130	Irrigation-A-High-All	0.000000
	3879564	10210	Irrigation-B-Low-All	0.000000
	3879564	10220	Irrigation-B-Med-All	0.000000
	3879564	10230	Irrigation-B-High-All	0.000000
	3879564	10310	Irrigation-C-Low-All	0.000000
	3879564	10320	Irrigation-C-Med-All	0.000000
	3879564	10330	Irrigation-C-High-All	0.000000
	3879564	10410	Irrigation-D-Low-All	0.000000
	3879564	10420	Irrigation-D-Med-All	0.000000
	3879564	10430	Irrigation-D-High-All	0.000000
	3879566	1000	Developed_Impervious-All-All-All	0.000000
	3879566	2110	Developed_Pervious-A-Low-All	0.000000
	3879566	2120	Developed_Pervious-A-Med-All	0.000000
	3879566	2130	Developed_Pervious-A-High-All	0.000000
	3879566	2210	Developed_Pervious-B-Low-All	0.000000
	3879566	2220	Developed_Pervious-B-Med-All	0.000000
	3879566	2230	Developed_Pervious-B-High-All	0.000000
	3879566	2310	Developed_Pervious-C-Low-All	0.000000
	3879566	2320	Developed_Pervious-C-Med-All	0.000000
	3879566	2330	Developed_Pervious-C-High-All	0.000000
	3879566	2410	Developed_Pervious-D-Low-All	0.000000
	3879566	2420	Developed_Pervious-D-Med-All	0.000000
	3879566	2430	Developed_Pervious-D-High-All	0.000000
	3879566	3110	Barren-A-Low-All	0.000000
	3879566	3120	Barren-A-Med-All	0.000000
	3879566	3130	Barren-A-High-All	0.000000
	3879566	3210	Barren-B-Low-All	0.000000
	3879566	3220	Barren-B-Med-All	0.000000
	3879566	3230	Barren-B-High-All	0.000000
	3879566	3310	Barren-C-Low-All	0.000000
	3879566	3320	Barren-C-Med-All	0.000000
	3879566	3330	Barren-C-High-All	0.000000
	3879566	3410	Barren-D-Low-All	0.000000
	3879566	3420	Barren-D-Med-All	0.000000
	3879566	3430	Barren-D-High-All	0.000000
	3879566	4110	Forest-A-Low-All	0.000000
	3879566	4120	Forest-A-Med-All	0.000000
	3879566	4130	Forest-A-High-All	0.000000
	3879566	4210	Forest-B-Low-All	0.000000
	3879566	4220	Forest-B-Med-All	0.000000
	3879566	4230	Forest-B-High-All	0.000000
	3879566	4310	Forest-C-Low-All	0.000000
	3879566	4320	Forest-C-Med-All	0.000000
	3879566	4330	Forest-C-High-All	0.000000
	3879566	4410	Forest-D-Low-All	0.000000
	3879566	4420	Forest-D-Med-All	0.000000
	3879566	4430	Forest-D-High-All	0.000000
	3879566	5110	Scrub-A-Low-All	0.000000
	3879566	5120	Scrub-A-Med-All	0.000000
	3879566	5130	Scrub-A-High-All	0.000000
	3879566	5210	Scrub-B-Low-All	0.000000
	3879566	5220	Scrub-B-Med-All	0.000000
	3879566	5230	Scrub-B-High-All	0.000000
	3879566	5310	Scrub-C-Low-All	0.000000
	3879566	5320	Scrub-C-Med-All	0.000000
	3879566	5330	Scrub-C-High-All	0.000000
	3879566	5410	Scrub-D-Low-All	0.000000
	3879566	5420	Scrub-D-Med-All	0.000000
	3879566	5430	Scrub-D-High-All	0.000000
	3879566	6110	Grassland-A-Low-All	0.000000
	3879566	6120	Grassland-A-Med-All	0.000000
	3879566	6130	Grassland-A-High-All	0.000000
	3879566	6210	Grassland-B-Low-All	0.000000
	3879566	6220	Grassland-B-Med-All	0.000000
	3879566	6230	Grassland-B-High-All	0.000000
	3879566	6310	Grassland-C-Low-All	0.000000
	3879566	6320	Grassland-C-Med-All	0.000000
	3879566	6330	Grassland-C-High-All	0.000000
	3879566	6410	Grassland-D-Low-All	0.000000
	3879566	6420	Grassland-D-Med-All	0.000000
	3879566	6430	Grassland-D-High-All	0.000000
	3879566	7110	Pasture-A-Low-All	0.000000
	3879566	7120	Pasture-A-Med-All	0.000000
	3879566	7130	Pasture-A-High-All	0.000000
	3879566	7210	Pasture-B-Low-All	0.000000
	3879566	7220	Pasture-B-Med-All	0.000000
	3879566	7230	Pasture-B-High-All	0.000000
	3879566	7310	Pasture-C-Low-All	0.000000
	3879566	7320	Pasture-C-Med-All	0.000000
	3879566	7330	Pasture-C-High-All	0.000000
	3879566	7410	Pasture-D-Low-All	0.000000
	3879566	7420	Pasture-D-Med-All	0.000000
	3879566	7430	Pasture-D-High-All	0.000000
	3879566	8110	Agriculture-A-Low-All	0.000000
	3879566	8120	Agriculture-A-Med-All	0.000000
	3879566	8130	Agriculture-A-High-All	0.000000
	3879566	8210	Agriculture-B-Low-All	0.000000
	3879566	8220	Agriculture-B-Med-All	0.000000
	3879566	8230	Agriculture-B-High-All	0.000000
	3879566	8310	Agriculture-C-Low-All	0.000000
	3879566	8320	Agriculture-C-Med-All	0.000000
	3879566	8330	Agriculture-C-High-All	0.000000
	3879566	8410	Agriculture-D-Low-All	0.000000
	3879566	8420	Agriculture-D-Med-All	0.000000
	3879566	8430	Agriculture-D-High-All	0.000000
	3879566	9000	Water-All-All-All	0.000000
	3879566	10110	Irrigation-A-Low-All	0.000000
	3879566	10120	Irrigation-A-Med-All	0.000000
	3879566	10130	Irrigation-A-High-All	0.000000
	3879566	10210	Irrigation-B-Low-All	0.000000
	3879566	10220	Irrigation-B-Med-All	0.000000
	3879566	10230	Irrigation-B-High-All	0.000000
	3879566	10310	Irrigation-C-Low-All	0.000000
	3879566	10320	Irrigation-C-Med-All	0.000000
	3879566	10330	Irrigation-C-High-All	0.000000
	3879566	10410	Irrigation-D-Low-All	0.000000
	3879566	10420	Irrigation-D-Med-All	0.000000
	3879566	10430	Irrigation-D-High-All	0.000000
	3879568	1000	Developed_Impervious-All-All-All	0.000000
	3879568	2110	Developed_Pervious-A-Low-All	0.000000
	3879568	2120	Developed_Pervious-A-Med-All	0.000000
	3879568	2130	Developed_Pervious-A-High-All	0.000000
	3879568	2210	Developed_Pervious-B-Low-All	0.000000
	3879568	2220	Developed_Pervious-B-Med-All	0.000000
	3879568	2230	Developed_Pervious-B-High-All	0.000000
	3879568	2310	Developed_Pervious-C-Low-All	0.000000
	3879568	2320	Developed_Pervious-C-Med-All	0.000000
	3879568	2330	Developed_Pervious-C-High-All	0.000000
	3879568	2410	Developed_Pervious-D-Low-All	0.000000
	3879568	2420	Developed_Pervious-D-Med-All	0.000000
	3879568	2430	Developed_Pervious-D-High-All	0.000000
	3879568	3110	Barren-A-Low-All	0.000000
	3879568	3120	Barren-A-Med-All	0.000000
	3879568	3130	Barren-A-High-All	0.000000
	3879568	3210	Barren-B-Low-All	0.000000
	3879568	3220	Barren-B-Med-All	0.000000
	3879568	3230	Barren-B-High-All	0.000000
	3879568	3310	Barren-C-Low-All	0.000000
	3879568	3320	Barren-C-Med-All	0.000000
	3879568	3330	Barren-C-High-All	0.000000
	3879568	3410	Barren-D-Low-All	0.000000
	3879568	3420	Barren-D-Med-All	0.000000
	3879568	3430	Barren-D-High-All	0.000000
	3879568	4110	Forest-A-Low-All	0.000000
	3879568	4120	Forest-A-Med-All	0.000000
	3879568	4130	Forest-A-High-All	0.000000
	3879568	4210	Forest-B-Low-All	0.000000
	3879568	4220	Forest-B-Med-All	0.000000
	3879568	4230	Forest-B-High-All	0.000000
	3879568	4310	Forest-C-Low-All	0.000000
	3879568	4320	Forest-C-Med-All	0.000000
	3879568	4330	Forest-C-High-All	0.000000
	3879568	4410	Forest-D-Low-All	0.000000
	3879568	4420	Forest-D-Med-All	0.000000
	3879568	4430	Forest-D-High-All	0.000000
	3879568	5110	Scrub-A-Low-All	0.000000
	3879568	5120	Scrub-A-Med-All	0.000000
	3879568	5130	Scrub-A-High-All	0.000000
	3879568	5210	Scrub-B-Low-All	0.000000
	3879568	5220	Scrub-B-Med-All	0.000000
	3879568	5230	Scrub-B-High-All	0.000000
	3879568	5310	Scrub-C-Low-All	0.000000
	3879568	5320	Scrub-C-Med-All	0.000000
	3879568	5330	Scrub-C-High-All	0.000000
	3879568	5410	Scrub-D-Low-All	0.000000
	3879568	5420	Scrub-D-Med-All	0.000000
	3879568	5430	Scrub-D-High-All	0.000000
	3879568	6110	Grassland-A-Low-All	0.000000
	3879568	6120	Grassland-A-Med-All	0.000000
	3879568	6130	Grassland-A-High-All	0.000000
	3879568	6210	Grassland-B-Low-All	0.000000
	3879568	6220	Grassland-B-Med-All	0.000000
	3879568	6230	Grassland-B-High-All	0.000000
	3879568	6310	Grassland-C-Low-All	0.000000
	3879568	6320	Grassland-C-Med-All	0.000000
	3879568	6330	Grassland-C-High-All	0.000000
	3879568	6410	Grassland-D-Low-All	0.000000
	3879568	6420	Grassland-D-Med-All	0.000000
	3879568	6430	Grassland-D-High-All	0.000000
	3879568	7110	Pasture-A-Low-All	0.000000
	3879568	7120	Pasture-A-Med-All	0.000000
	3879568	7130	Pasture-A-High-All	0.000000
	3879568	7210	Pasture-B-Low-All	0.000000
	3879568	7220	Pasture-B-Med-All	0.000000
	3879568	7230	Pasture-B-High-All	0.000000
	3879568	7310	Pasture-C-Low-All	0.000000
	3879568	7320	Pasture-C-Med-All	0.000000
	3879568	7330	Pasture-C-High-All	0.000000
	3879568	7410	Pasture-D-Low-All	0.000000
	3879568	7420	Pasture-D-Med-All	0.000000
	3879568	7430	Pasture-D-High-All	0.000000
	3879568	8110	Agriculture-A-Low-All	0.000000
	3879568	8120	Agriculture-A-Med-All	0.000000
	3879568	8130	Agriculture-A-High-All	0.000000
	3879568	8210	Agriculture-B-Low-All	0.000000
	3879568	8220	Agriculture-B-Med-All	0.000000
	3879568	8230	Agriculture-B-High-All	0.000000
	3879568	8310	Agriculture-C-Low-All	0.000000
	3879568	8320	Agriculture-C-Med-All	0.000000
	3879568	8330	Agriculture-C-High-All	0.000000
	3879568	8410	Agriculture-D-Low-All	0.000000
	3879568	8420	Agriculture-D-Med-All	0.000000
	3879568	8430	Agriculture-D-High-All	0.000000
	3879568	9000	Water-All-All-All	0.000000
	3879568	10110	Irrigation-A-Low-All	0.000000
	3879568	10120	Irrigation-A-Med-All	0.000000
	3879568	10130	Irrigation-A-High-All	0.000000
	3879568	10210	Irrigation-B-Low-All	0.000000
	3879568	10220	Irrigation-B-Med-All	0.000000
	3879568	10230	Irrigation-B-High-All	0.000000
	3879568	10310	Irrigation-C-Low-All	0.000000
	3879568	10320	Irrigation-C-Med-All	0.000000
	3879568	10330	Irrigation-C-High-All	0.000000
	3879568	10410	Irrigation-D-Low-All	0.000000
	3879568	10420	Irrigation-D-Med-All	0.000000
	3879568	10430	Irrigation-D-High-All	0.000000
	3879720	1000	Developed_Impervious-All-All-All	0.000000
	3879720	2110	Developed_Pervious-A-Low-All	0.000000
	3879720	2120	Developed_Pervious-A-Med-All	0.000000
	3879720	2130	Developed_Pervious-A-High-All	0.000000
	3879720	2210	Developed_Pervious-B-Low-All	0.000000
	3879720	2220	Developed_Pervious-B-Med-All	0.000000
	3879720	2230	Developed_Pervious-B-High-All	0.000000
	3879720	2310	Developed_Pervious-C-Low-All	0.000000
	3879720	2320	Developed_Pervious-C-Med-All	0.000000
	3879720	2330	Developed_Pervious-C-High-All	0.000000
	3879720	2410	Developed_Pervious-D-Low-All	0.000000
	3879720	2420	Developed_Pervious-D-Med-All	0.000000
	3879720	2430	Developed_Pervious-D-High-All	0.000000
	3879720	3110	Barren-A-Low-All	0.000000
	3879720	3120	Barren-A-Med-All	0.000000
	3879720	3130	Barren-A-High-All	0.000000
	3879720	3210	Barren-B-Low-All	0.000000
	3879720	3220	Barren-B-Med-All	0.000000
	3879720	3230	Barren-B-High-All	0.000000
	3879720	3310	Barren-C-Low-All	0.000000
	3879720	3320	Barren-C-Med-All	0.000000
	3879720	3330	Barren-C-High-All	0.000000
	3879720	3410	Barren-D-Low-All	0.000000
	3879720	3420	Barren-D-Med-All	0.000000
	3879720	3430	Barren-D-High-All	0.000000
	3879720	4110	Forest-A-Low-All	0.000000
	3879720	4120	Forest-A-Med-All	0.000000
	3879720	4130	Forest-A-High-All	0.000000
	3879720	4210	Forest-B-Low-All	0.000000
	3879720	4220	Forest-B-Med-All	0.000000
	3879720	4230	Forest-B-High-All	0.000000
	3879720	4310	Forest-C-Low-All	0.000000
	3879720	4320	Forest-C-Med-All	0.000000
	3879720	4330	Forest-C-High-All	0.000000
	3879720	4410	Forest-D-Low-All	0.000000
	3879720	4420	Forest-D-Med-All	0.000000
	3879720	4430	Forest-D-High-All	0.000000
	3879720	5110	Scrub-A-Low-All	0.000000
	3879720	5120	Scrub-A-Med-All	0.000000
	3879720	5130	Scrub-A-High-All	0.000000
	3879720	5210	Scrub-B-Low-All	0.000000
	3879720	5220	Scrub-B-Med-All	0.000000
	3879720	5230	Scrub-B-High-All	0.000000
	3879720	5310	Scrub-C-Low-All	0.000000
	3879720	5320	Scrub-C-Med-All	0.000000
	3879720	5330	Scrub-C-High-All	0.000000
	3879720	5410	Scrub-D-Low-All	0.000000
	3879720	5420	Scrub-D-Med-All	0.000000
	3879720	5430	Scrub-D-High-All	0.000000
	3879720	6110	Grassland-A-Low-All	0.000000
	3879720	6120	Grassland-A-Med-All	0.000000
	3879720	6130	Grassland-A-High-All	0.000000
	3879720	6210	Grassland-B-Low-All	0.000000
	3879720	6220	Grassland-B-Med-All	0.000000
	3879720	6230	Grassland-B-High-All	0.000000
	3879720	6310	Grassland-C-Low-All	0.000000
	3879720	6320	Grassland-C-Med-All	0.000000
	3879720	6330	Grassland-C-High-All	0.000000
	3879720	6410	Grassland-D-Low-All	0.000000
	3879720	6420	Grassland-D-Med-All	0.000000
	3879720	6430	Grassland-D-High-All	0.000000
	3879720	7110	Pasture-A-Low-All	0.000000
	3879720	7120	Pasture-A-Med-All	0.000000
	3879720	7130	Pasture-A-High-All	0.000000
	3879720	7210	Pasture-B-Low-All	0.000000
	3879720	7220	Pasture-B-Med-All	0.000000
	3879720	7230	Pasture-B-High-All	0.000000
	3879720	7310	Pasture-C-Low-All	0.000000
	3879720	7320	Pasture-C-Med-All	0.000000
	3879720	7330	Pasture-C-High-All	0.000000
	3879720	7410	Pasture-D-Low-All	0.000000
	3879720	7420	Pasture-D-Med-All	0.000000
	3879720	7430	Pasture-D-High-All	0.000000
	3879720	8110	Agriculture-A-Low-All	0.000000
	3879720	8120	Agriculture-A-Med-All	0.000000
	3879720	8130	Agriculture-A-High-All	0.000000
	3879720	8210	Agriculture-B-Low-All	0.000000
	3879720	8220	Agriculture-B-Med-All	0.000000
	3879720	8230	Agriculture-B-High-All	0.000000
	3879720	8310	Agriculture-C-Low-All	0.000000
	3879720	8320	Agriculture-C-Med-All	0.000000
	3879720	8330	Agriculture-C-High-All	0.000000
	3879720	8410	Agriculture-D-Low-All	0.000000
	3879720	8420	Agriculture-D-Med-All	0.000000
	3879720	8430	Agriculture-D-High-All	0.000000
	3879720	9000	Water-All-All-All	0.000000
	3879720	10110	Irrigation-A-Low-All	0.000000
	3879720	10120	Irrigation-A-Med-All	0.000000
	3879720	10130	Irrigation-A-High-All	0.000000
	3879720	10210	Irrigation-B-Low-All	0.000000
	3879720	10220	Irrigation-B-Med-All	0.000000
	3879720	10230	Irrigation-B-High-All	0.000000
	3879720	10310	Irrigation-C-Low-All	0.000000
	3879720	10320	Irrigation-C-Med-All	0.000000
	3879720	10330	Irrigation-C-High-All	0.000000
	3879720	10410	Irrigation-D-Low-All	0.000000
	3879720	10420	Irrigation-D-Med-All	0.000000
	3879720	10430	Irrigation-D-High-All	0.000000
	3879750	1000	Developed_Impervious-All-All-All	0.000000
	3879750	2110	Developed_Pervious-A-Low-All	0.000000
	3879750	2120	Developed_Pervious-A-Med-All	0.000000
	3879750	2130	Developed_Pervious-A-High-All	0.000000
	3879750	2210	Developed_Pervious-B-Low-All	0.000000
	3879750	2220	Developed_Pervious-B-Med-All	0.000000
	3879750	2230	Developed_Pervious-B-High-All	0.000000
	3879750	2310	Developed_Pervious-C-Low-All	0.000000
	3879750	2320	Developed_Pervious-C-Med-All	0.000000
	3879750	2330	Developed_Pervious-C-High-All	0.000000
	3879750	2410	Developed_Pervious-D-Low-All	0.000000
	3879750	2420	Developed_Pervious-D-Med-All	0.000000
	3879750	2430	Developed_Pervious-D-High-All	0.000000
	3879750	3110	Barren-A-Low-All	0.000000
	3879750	3120	Barren-A-Med-All	0.000000
	3879750	3130	Barren-A-High-All	0.000000
	3879750	3210	Barren-B-Low-All	0.000000
	3879750	3220	Barren-B-Med-All	0.000000
	3879750	3230	Barren-B-High-All	0.000000
	3879750	3310	Barren-C-Low-All	0.000000
	3879750	3320	Barren-C-Med-All	0.000000
	3879750	3330	Barren-C-High-All	0.000000
	3879750	3410	Barren-D-Low-All	0.000000
	3879750	3420	Barren-D-Med-All	0.000000
	3879750	3430	Barren-D-High-All	0.000000
	3879750	4110	Forest-A-Low-All	0.000000
	3879750	4120	Forest-A-Med-All	0.000000
	3879750	4130	Forest-A-High-All	0.000000
	3879750	4210	Forest-B-Low-All	0.000000
	3879750	4220	Forest-B-Med-All	0.000000
	3879750	4230	Forest-B-High-All	0.000000
	3879750	4310	Forest-C-Low-All	0.000000
	3879750	4320	Forest-C-Med-All	0.000000
	3879750	4330	Forest-C-High-All	0.000000
	3879750	4410	Forest-D-Low-All	0.000000
	3879750	4420	Forest-D-Med-All	0.000000
	3879750	4430	Forest-D-High-All	0.000000
	3879750	5110	Scrub-A-Low-All	0.000000
	3879750	5120	Scrub-A-Med-All	0.000000
	3879750	5130	Scrub-A-High-All	0.000000
	3879750	5210	Scrub-B-Low-All	0.000000
	3879750	5220	Scrub-B-Med-All	0.000000
	3879750	5230	Scrub-B-High-All	0.000000
	3879750	5310	Scrub-C-Low-All	0.000000
	3879750	5320	Scrub-C-Med-All	0.000000
	3879750	5330	Scrub-C-High-All	0.000000
	3879750	5410	Scrub-D-Low-All	0.000000
	3879750	5420	Scrub-D-Med-All	0.000000
	3879750	5430	Scrub-D-High-All	0.000000
	3879750	6110	Grassland-A-Low-All	0.000000
	3879750	6120	Grassland-A-Med-All	0.000000
	3879750	6130	Grassland-A-High-All	0.000000
	3879750	6210	Grassland-B-Low-All	0.000000
	3879750	6220	Grassland-B-Med-All	0.000000
	3879750	6230	Grassland-B-High-All	0.000000
	3879750	6310	Grassland-C-Low-All	0.000000
	3879750	6320	Grassland-C-Med-All	0.000000
	3879750	6330	Grassland-C-High-All	0.000000
	3879750	6410	Grassland-D-Low-All	0.000000
	3879750	6420	Grassland-D-Med-All	0.000000
	3879750	6430	Grassland-D-High-All	0.000000
	3879750	7110	Pasture-A-Low-All	0.000000
	3879750	7120	Pasture-A-Med-All	0.000000
	3879750	7130	Pasture-A-High-All	0.000000
	3879750	7210	Pasture-B-Low-All	0.000000
	3879750	7220	Pasture-B-Med-All	0.000000
	3879750	7230	Pasture-B-High-All	0.000000
	3879750	7310	Pasture-C-Low-All	0.000000
	3879750	7320	Pasture-C-Med-All	0.000000
	3879750	7330	Pasture-C-High-All	0.000000
	3879750	7410	Pasture-D-Low-All	0.000000
	3879750	7420	Pasture-D-Med-All	0.000000
	3879750	7430	Pasture-D-High-All	0.000000
	3879750	8110	Agriculture-A-Low-All	0.000000
	3879750	8120	Agriculture-A-Med-All	0.000000
	3879750	8130	Agriculture-A-High-All	0.000000
	3879750	8210	Agriculture-B-Low-All	0.000000
	3879750	8220	Agriculture-B-Med-All	0.000000
	3879750	8230	Agriculture-B-High-All	0.000000
	3879750	8310	Agriculture-C-Low-All	0.000000
	3879750	8320	Agriculture-C-Med-All	0.000000
	3879750	8330	Agriculture-C-High-All	0.000000
	3879750	8410	Agriculture-D-Low-All	0.000000
	3879750	8420	Agriculture-D-Med-All	0.000000
	3879750	8430	Agriculture-D-High-All	0.000000
	3879750	9000	Water-All-All-All	0.000000
	3879750	10110	Irrigation-A-Low-All	0.000000
	3879750	10120	Irrigation-A-Med-All	0.000000
	3879750	10130	Irrigation-A-High-All	0.000000
	3879750	10210	Irrigation-B-Low-All	0.000000
	3879750	10220	Irrigation-B-Med-All	0.000000
	3879750	10230	Irrigation-B-High-All	0.000000
	3879750	10310	Irrigation-C-Low-All	0.000000
	3879750	10320	Irrigation-C-Med-All	0.000000
	3879750	10330	Irrigation-C-High-All	0.000000
	3879750	10410	Irrigation-D-Low-All	0.000000
	3879750	10420	Irrigation-D-Med-All	0.000000
	3879750	10430	Irrigation-D-High-All	0.000000
	3879966	1000	Developed_Impervious-All-All-All	0.000000
	3879966	2110	Developed_Pervious-A-Low-All	0.000000
	3879966	2120	Developed_Pervious-A-Med-All	0.000000
	3879966	2130	Developed_Pervious-A-High-All	0.000000
	3879966	2210	Developed_Pervious-B-Low-All	0.000000
	3879966	2220	Developed_Pervious-B-Med-All	0.000000
	3879966	2230	Developed_Pervious-B-High-All	0.000000
	3879966	2310	Developed_Pervious-C-Low-All	0.000000
	3879966	2320	Developed_Pervious-C-Med-All	0.000000
	3879966	2330	Developed_Pervious-C-High-All	0.000000
	3879966	2410	Developed_Pervious-D-Low-All	0.000000
	3879966	2420	Developed_Pervious-D-Med-All	0.000000
	3879966	2430	Developed_Pervious-D-High-All	0.000000
	3879966	3110	Barren-A-Low-All	0.000000
	3879966	3120	Barren-A-Med-All	0.000000
	3879966	3130	Barren-A-High-All	0.000000
	3879966	3210	Barren-B-Low-All	0.000000
	3879966	3220	Barren-B-Med-All	0.000000
	3879966	3230	Barren-B-High-All	0.000000
	3879966	3310	Barren-C-Low-All	0.000000
	3879966	3320	Barren-C-Med-All	0.000000
	3879966	3330	Barren-C-High-All	0.000000
	3879966	3410	Barren-D-Low-All	0.000000
	3879966	3420	Barren-D-Med-All	0.000000
	3879966	3430	Barren-D-High-All	0.000000
	3879966	4110	Forest-A-Low-All	0.000000
	3879966	4120	Forest-A-Med-All	0.000000
	3879966	4130	Forest-A-High-All	0.000000
	3879966	4210	Forest-B-Low-All	0.000000
	3879966	4220	Forest-B-Med-All	0.000000
	3879966	4230	Forest-B-High-All	0.000000
	3879966	4310	Forest-C-Low-All	0.000000
	3879966	4320	Forest-C-Med-All	0.000000
	3879966	4330	Forest-C-High-All	0.000000
	3879966	4410	Forest-D-Low-All	0.000000
	3879966	4420	Forest-D-Med-All	0.000000
	3879966	4430	Forest-D-High-All	0.000000
	3879966	5110	Scrub-A-Low-All	0.000000
	3879966	5120	Scrub-A-Med-All	0.000000
	3879966	5130	Scrub-A-High-All	0.000000
	3879966	5210	Scrub-B-Low-All	0.000000
	3879966	5220	Scrub-B-Med-All	0.000000
	3879966	5230	Scrub-B-High-All	0.000000
	3879966	5310	Scrub-C-Low-All	0.000000
	3879966	5320	Scrub-C-Med-All	0.000000
	3879966	5330	Scrub-C-High-All	0.000000
	3879966	5410	Scrub-D-Low-All	0.000000
	3879966	5420	Scrub-D-Med-All	0.000000
	3879966	5430	Scrub-D-High-All	0.000000
	3879966	6110	Grassland-A-Low-All	0.000000
	3879966	6120	Grassland-A-Med-All	0.000000
	3879966	6130	Grassland-A-High-All	0.000000
	3879966	6210	Grassland-B-Low-All	0.000000
	3879966	6220	Grassland-B-Med-All	0.000000
	3879966	6230	Grassland-B-High-All	0.000000
	3879966	6310	Grassland-C-Low-All	0.000000
	3879966	6320	Grassland-C-Med-All	0.000000
	3879966	6330	Grassland-C-High-All	0.000000
	3879966	6410	Grassland-D-Low-All	0.000000
	3879966	6420	Grassland-D-Med-All	0.000000
	3879966	6430	Grassland-D-High-All	0.000000
	3879966	7110	Pasture-A-Low-All	0.000000
	3879966	7120	Pasture-A-Med-All	0.000000
	3879966	7130	Pasture-A-High-All	0.000000
	3879966	7210	Pasture-B-Low-All	0.000000
	3879966	7220	Pasture-B-Med-All	0.000000
	3879966	7230	Pasture-B-High-All	0.000000
	3879966	7310	Pasture-C-Low-All	0.000000
	3879966	7320	Pasture-C-Med-All	0.000000
	3879966	7330	Pasture-C-High-All	0.000000
	3879966	7410	Pasture-D-Low-All	0.000000
	3879966	7420	Pasture-D-Med-All	0.000000
	3879966	7430	Pasture-D-High-All	0.000000
	3879966	8110	Agriculture-A-Low-All	0.000000
	3879966	8120	Agriculture-A-Med-All	0.000000
	3879966	8130	Agriculture-A-High-All	0.000000
	3879966	8210	Agriculture-B-Low-All	0.000000
	3879966	8220	Agriculture-B-Med-All	0.000000
	3879966	8230	Agriculture-B-High-All	0.000000
	3879966	8310	Agriculture-C-Low-All	0.000000
	3879966	8320	Agriculture-C-Med-All	0.000000
	3879966	8330	Agriculture-C-High-All	0.000000
	3879966	8410	Agriculture-D-Low-All	0.000000
	3879966	8420	Agriculture-D-Med-All	0.000000
	3879966	8430	Agriculture-D-High-All	0.000000
	3879966	9000	Water-All-All-All	0.000000
	3879966	10110	Irrigation-A-Low-All	0.000000
	3879966	10120	Irrigation-A-Med-All	0.000000
	3879966	10130	Irrigation-A-High-All	0.000000
	3879966	10210	Irrigation-B-Low-All	0.000000
	3879966	10220	Irrigation-B-Med-All	0.000000
	3879966	10230	Irrigation-B-High-All	0.000000
	3879966	10310	Irrigation-C-Low-All	0.000000
	3879966	10320	Irrigation-C-Med-All	0.000000
	3879966	10330	Irrigation-C-High-All	0.000000
	3879966	10410	Irrigation-D-Low-All	0.000000
	3879966	10420	Irrigation-D-Med-All	0.000000
	3879966	10430	Irrigation-D-High-All	0.000000
	3879968	1000	Developed_Impervious-All-All-All	0.000000
	3879968	2110	Developed_Pervious-A-Low-All	0.000000
	3879968	2120	Developed_Pervious-A-Med-All	0.000000
	3879968	2130	Developed_Pervious-A-High-All	0.000000
	3879968	2210	Developed_Pervious-B-Low-All	0.000000
	3879968	2220	Developed_Pervious-B-Med-All	0.000000
	3879968	2230	Developed_Pervious-B-High-All	0.000000
	3879968	2310	Developed_Pervious-C-Low-All	0.000000
	3879968	2320	Developed_Pervious-C-Med-All	0.000000
	3879968	2330	Developed_Pervious-C-High-All	0.000000
	3879968	2410	Developed_Pervious-D-Low-All	0.000000
	3879968	2420	Developed_Pervious-D-Med-All	0.000000
	3879968	2430	Developed_Pervious-D-High-All	0.000000
	3879968	3110	Barren-A-Low-All	0.000000
	3879968	3120	Barren-A-Med-All	0.000000
	3879968	3130	Barren-A-High-All	0.000000
	3879968	3210	Barren-B-Low-All	0.000000
	3879968	3220	Barren-B-Med-All	0.000000
	3879968	3230	Barren-B-High-All	0.000000
	3879968	3310	Barren-C-Low-All	0.000000
	3879968	3320	Barren-C-Med-All	0.000000
	3879968	3330	Barren-C-High-All	0.000000
	3879968	3410	Barren-D-Low-All	0.000000
	3879968	3420	Barren-D-Med-All	0.000000
	3879968	3430	Barren-D-High-All	0.000000
	3879968	4110	Forest-A-Low-All	0.000000
	3879968	4120	Forest-A-Med-All	0.000000
	3879968	4130	Forest-A-High-All	0.000000
	3879968	4210	Forest-B-Low-All	0.000000
	3879968	4220	Forest-B-Med-All	0.000000
	3879968	4230	Forest-B-High-All	0.000000
	3879968	4310	Forest-C-Low-All	0.000000
	3879968	4320	Forest-C-Med-All	0.000000
	3879968	4330	Forest-C-High-All	0.000000
	3879968	4410	Forest-D-Low-All	0.000000
	3879968	4420	Forest-D-Med-All	0.000000
	3879968	4430	Forest-D-High-All	0.000000
	3879968	5110	Scrub-A-Low-All	0.000000
	3879968	5120	Scrub-A-Med-All	0.000000
	3879968	5130	Scrub-A-High-All	0.000000
	3879968	5210	Scrub-B-Low-All	0.000000
	3879968	5220	Scrub-B-Med-All	0.000000
	3879968	5230	Scrub-B-High-All	0.000000
	3879968	5310	Scrub-C-Low-All	0.000000
	3879968	5320	Scrub-C-Med-All	0.000000
	3879968	5330	Scrub-C-High-All	0.000000
	3879968	5410	Scrub-D-Low-All	0.000000
	3879968	5420	Scrub-D-Med-All	0.000000
	3879968	5430	Scrub-D-High-All	0.000000
	3879968	6110	Grassland-A-Low-All	0.000000
	3879968	6120	Grassland-A-Med-All	0.000000
	3879968	6130	Grassland-A-High-All	0.000000
	3879968	6210	Grassland-B-Low-All	0.000000
	3879968	6220	Grassland-B-Med-All	0.000000
	3879968	6230	Grassland-B-High-All	0.000000
	3879968	6310	Grassland-C-Low-All	0.000000
	3879968	6320	Grassland-C-Med-All	0.000000
	3879968	6330	Grassland-C-High-All	0.000000
	3879968	6410	Grassland-D-Low-All	0.000000
	3879968	6420	Grassland-D-Med-All	0.000000
	3879968	6430	Grassland-D-High-All	0.000000
	3879968	7110	Pasture-A-Low-All	0.000000
	3879968	7120	Pasture-A-Med-All	0.000000
	3879968	7130	Pasture-A-High-All	0.000000
	3879968	7210	Pasture-B-Low-All	0.000000
	3879968	7220	Pasture-B-Med-All	0.000000
	3879968	7230	Pasture-B-High-All	0.000000
	3879968	7310	Pasture-C-Low-All	0.000000
	3879968	7320	Pasture-C-Med-All	0.000000
	3879968	7330	Pasture-C-High-All	0.000000
	3879968	7410	Pasture-D-Low-All	0.000000
	3879968	7420	Pasture-D-Med-All	0.000000
	3879968	7430	Pasture-D-High-All	0.000000
	3879968	8110	Agriculture-A-Low-All	0.000000
	3879968	8120	Agriculture-A-Med-All	0.000000
	3879968	8130	Agriculture-A-High-All	0.000000
	3879968	8210	Agriculture-B-Low-All	0.000000
	3879968	8220	Agriculture-B-Med-All	0.000000
	3879968	8230	Agriculture-B-High-All	0.000000
	3879968	8310	Agriculture-C-Low-All	0.000000
	3879968	8320	Agriculture-C-Med-All	0.000000
	3879968	8330	Agriculture-C-High-All	0.000000
	3879968	8410	Agriculture-D-Low-All	0.000000
	3879968	8420	Agriculture-D-Med-All	0.000000
	3879968	8430	Agriculture-D-High-All	0.000000
	3879968	9000	Water-All-All-All	0.000000
	3879968	10110	Irrigation-A-Low-All	0.000000
	3879968	10120	Irrigation-A-Med-All	0.000000
	3879968	10130	Irrigation-A-High-All	0.000000
	3879968	10210	Irrigation-B-Low-All	0.000000
	3879968	10220	Irrigation-B-Med-All	0.000000
	3879968	10230	Irrigation-B-High-All	0.000000
	3879968	10310	Irrigation-C-Low-All	0.000000
	3879968	10320	Irrigation-C-Med-All	0.000000
	3879968	10330	Irrigation-C-High-All	0.000000
	3879968	10410	Irrigation-D-Low-All	0.000000
	3879968	10420	Irrigation-D-Med-All	0.000000
	3879968	10430	Irrigation-D-High-All	0.000000
	3879970	1000	Developed_Impervious-All-All-All	0.000000
	3879970	2110	Developed_Pervious-A-Low-All	0.000000
	3879970	2120	Developed_Pervious-A-Med-All	0.000000
	3879970	2130	Developed_Pervious-A-High-All	0.000000
	3879970	2210	Developed_Pervious-B-Low-All	0.000000
	3879970	2220	Developed_Pervious-B-Med-All	0.000000
	3879970	2230	Developed_Pervious-B-High-All	0.000000
	3879970	2310	Developed_Pervious-C-Low-All	0.000000
	3879970	2320	Developed_Pervious-C-Med-All	0.000000
	3879970	2330	Developed_Pervious-C-High-All	0.000000
	3879970	2410	Developed_Pervious-D-Low-All	0.000000
	3879970	2420	Developed_Pervious-D-Med-All	0.000000
	3879970	2430	Developed_Pervious-D-High-All	0.000000
	3879970	3110	Barren-A-Low-All	0.000000
	3879970	3120	Barren-A-Med-All	0.000000
	3879970	3130	Barren-A-High-All	0.000000
	3879970	3210	Barren-B-Low-All	0.000000
	3879970	3220	Barren-B-Med-All	0.000000
	3879970	3230	Barren-B-High-All	0.000000
	3879970	3310	Barren-C-Low-All	0.000000
	3879970	3320	Barren-C-Med-All	0.000000
	3879970	3330	Barren-C-High-All	0.000000
	3879970	3410	Barren-D-Low-All	0.000000
	3879970	3420	Barren-D-Med-All	0.000000
	3879970	3430	Barren-D-High-All	0.000000
	3879970	4110	Forest-A-Low-All	0.000000
	3879970	4120	Forest-A-Med-All	0.000000
	3879970	4130	Forest-A-High-All	0.000000
	3879970	4210	Forest-B-Low-All	0.000000
	3879970	4220	Forest-B-Med-All	0.000000
	3879970	4230	Forest-B-High-All	0.000000
	3879970	4310	Forest-C-Low-All	0.000000
	3879970	4320	Forest-C-Med-All	0.000000
	3879970	4330	Forest-C-High-All	0.000000
	3879970	4410	Forest-D-Low-All	0.000000
	3879970	4420	Forest-D-Med-All	0.000000
	3879970	4430	Forest-D-High-All	0.000000
	3879970	5110	Scrub-A-Low-All	0.000000
	3879970	5120	Scrub-A-Med-All	0.000000
	3879970	5130	Scrub-A-High-All	0.000000
	3879970	5210	Scrub-B-Low-All	0.000000
	3879970	5220	Scrub-B-Med-All	0.000000
	3879970	5230	Scrub-B-High-All	0.000000
	3879970	5310	Scrub-C-Low-All	0.000000
	3879970	5320	Scrub-C-Med-All	0.000000
	3879970	5330	Scrub-C-High-All	0.000000
	3879970	5410	Scrub-D-Low-All	0.000000
	3879970	5420	Scrub-D-Med-All	0.000000
	3879970	5430	Scrub-D-High-All	0.000000
	3879970	6110	Grassland-A-Low-All	0.000000
	3879970	6120	Grassland-A-Med-All	0.000000
	3879970	6130	Grassland-A-High-All	0.000000
	3879970	6210	Grassland-B-Low-All	0.000000
	3879970	6220	Grassland-B-Med-All	0.000000
	3879970	6230	Grassland-B-High-All	0.000000
	3879970	6310	Grassland-C-Low-All	0.000000
	3879970	6320	Grassland-C-Med-All	0.000000
	3879970	6330	Grassland-C-High-All	0.000000
	3879970	6410	Grassland-D-Low-All	0.000000
	3879970	6420	Grassland-D-Med-All	0.000000
	3879970	6430	Grassland-D-High-All	0.000000
	3879970	7110	Pasture-A-Low-All	0.000000
	3879970	7120	Pasture-A-Med-All	0.000000
	3879970	7130	Pasture-A-High-All	0.000000
	3879970	7210	Pasture-B-Low-All	0.000000
	3879970	7220	Pasture-B-Med-All	0.000000
	3879970	7230	Pasture-B-High-All	0.000000
	3879970	7310	Pasture-C-Low-All	0.000000
	3879970	7320	Pasture-C-Med-All	0.000000
	3879970	7330	Pasture-C-High-All	0.000000
	3879970	7410	Pasture-D-Low-All	0.000000
	3879970	7420	Pasture-D-Med-All	0.000000
	3879970	7430	Pasture-D-High-All	0.000000
	3879970	8110	Agriculture-A-Low-All	0.000000
	3879970	8120	Agriculture-A-Med-All	0.000000
	3879970	8130	Agriculture-A-High-All	0.000000
	3879970	8210	Agriculture-B-Low-All	0.000000
	3879970	8220	Agriculture-B-Med-All	0.000000
	3879970	8230	Agriculture-B-High-All	0.000000
	3879970	8310	Agriculture-C-Low-All	0.000000
	3879970	8320	Agriculture-C-Med-All	0.000000
	3879970	8330	Agriculture-C-High-All	0.000000
	3879970	8410	Agriculture-D-Low-All	0.000000
	3879970	8420	Agriculture-D-Med-All	0.000000
	3879970	8430	Agriculture-D-High-All	0.000000
	3879970	9000	Water-All-All-All	0.000000
	3879970	10110	Irrigation-A-Low-All	0.000000
	3879970	10120	Irrigation-A-Med-All	0.000000
	3879970	10130	Irrigation-A-High-All	0.000000
	3879970	10210	Irrigation-B-Low-All	0.000000
	3879970	10220	Irrigation-B-Med-All	0.000000
	3879970	10230	Irrigation-B-High-All	0.000000
	3879970	10310	Irrigation-C-Low-All	0.000000
	3879970	10320	Irrigation-C-Med-All	0.000000
	3879970	10330	Irrigation-C-High-All	0.000000
	3879970	10410	Irrigation-D-Low-All	0.000000
	3879970	10420	Irrigation-D-Med-All	0.000000
	3879970	10430	Irrigation-D-High-All	0.000000
	3879972	1000	Developed_Impervious-All-All-All	0.000000
	3879972	2110	Developed_Pervious-A-Low-All	0.000000
	3879972	2120	Developed_Pervious-A-Med-All	0.000000
	3879972	2130	Developed_Pervious-A-High-All	0.000000
	3879972	2210	Developed_Pervious-B-Low-All	0.000000
	3879972	2220	Developed_Pervious-B-Med-All	0.000000
	3879972	2230	Developed_Pervious-B-High-All	0.000000
	3879972	2310	Developed_Pervious-C-Low-All	0.000000
	3879972	2320	Developed_Pervious-C-Med-All	0.000000
	3879972	2330	Developed_Pervious-C-High-All	0.000000
	3879972	2410	Developed_Pervious-D-Low-All	0.000000
	3879972	2420	Developed_Pervious-D-Med-All	0.000000
	3879972	2430	Developed_Pervious-D-High-All	0.000000
	3879972	3110	Barren-A-Low-All	0.000000
	3879972	3120	Barren-A-Med-All	0.000000
	3879972	3130	Barren-A-High-All	0.000000
	3879972	3210	Barren-B-Low-All	0.000000
	3879972	3220	Barren-B-Med-All	0.000000
	3879972	3230	Barren-B-High-All	0.000000
	3879972	3310	Barren-C-Low-All	0.000000
	3879972	3320	Barren-C-Med-All	0.000000
	3879972	3330	Barren-C-High-All	0.000000
	3879972	3410	Barren-D-Low-All	0.000000
	3879972	3420	Barren-D-Med-All	0.000000
	3879972	3430	Barren-D-High-All	0.000000
	3879972	4110	Forest-A-Low-All	0.000000
	3879972	4120	Forest-A-Med-All	0.000000
	3879972	4130	Forest-A-High-All	0.000000
	3879972	4210	Forest-B-Low-All	0.000000
	3879972	4220	Forest-B-Med-All	0.000000
	3879972	4230	Forest-B-High-All	0.000000
	3879972	4310	Forest-C-Low-All	0.000000
	3879972	4320	Forest-C-Med-All	0.000000
	3879972	4330	Forest-C-High-All	0.000000
	3879972	4410	Forest-D-Low-All	0.000000
	3879972	4420	Forest-D-Med-All	0.000000
	3879972	4430	Forest-D-High-All	0.000000
	3879972	5110	Scrub-A-Low-All	0.000000
	3879972	5120	Scrub-A-Med-All	0.000000
	3879972	5130	Scrub-A-High-All	0.000000
	3879972	5210	Scrub-B-Low-All	0.000000
	3879972	5220	Scrub-B-Med-All	0.000000
	3879972	5230	Scrub-B-High-All	0.000000
	3879972	5310	Scrub-C-Low-All	0.000000
	3879972	5320	Scrub-C-Med-All	0.000000
	3879972	5330	Scrub-C-High-All	0.000000
	3879972	5410	Scrub-D-Low-All	0.000000
	3879972	5420	Scrub-D-Med-All	0.000000
	3879972	5430	Scrub-D-High-All	0.000000
	3879972	6110	Grassland-A-Low-All	0.000000
	3879972	6120	Grassland-A-Med-All	0.000000
	3879972	6130	Grassland-A-High-All	0.000000
	3879972	6210	Grassland-B-Low-All	0.000000
	3879972	6220	Grassland-B-Med-All	0.000000
	3879972	6230	Grassland-B-High-All	0.000000
	3879972	6310	Grassland-C-Low-All	0.000000
	3879972	6320	Grassland-C-Med-All	0.000000
	3879972	6330	Grassland-C-High-All	0.000000
	3879972	6410	Grassland-D-Low-All	0.000000
	3879972	6420	Grassland-D-Med-All	0.000000
	3879972	6430	Grassland-D-High-All	0.000000
	3879972	7110	Pasture-A-Low-All	0.000000
	3879972	7120	Pasture-A-Med-All	0.000000
	3879972	7130	Pasture-A-High-All	0.000000
	3879972	7210	Pasture-B-Low-All	0.000000
	3879972	7220	Pasture-B-Med-All	0.000000
	3879972	7230	Pasture-B-High-All	0.000000
	3879972	7310	Pasture-C-Low-All	0.000000
	3879972	7320	Pasture-C-Med-All	0.000000
	3879972	7330	Pasture-C-High-All	0.000000
	3879972	7410	Pasture-D-Low-All	0.000000
	3879972	7420	Pasture-D-Med-All	0.000000
	3879972	7430	Pasture-D-High-All	0.000000
	3879972	8110	Agriculture-A-Low-All	0.000000
	3879972	8120	Agriculture-A-Med-All	0.000000
	3879972	8130	Agriculture-A-High-All	0.000000
	3879972	8210	Agriculture-B-Low-All	0.000000
	3879972	8220	Agriculture-B-Med-All	0.000000
	3879972	8230	Agriculture-B-High-All	0.000000
	3879972	8310	Agriculture-C-Low-All	0.000000
	3879972	8320	Agriculture-C-Med-All	0.000000
	3879972	8330	Agriculture-C-High-All	0.000000
	3879972	8410	Agriculture-D-Low-All	0.000000
	3879972	8420	Agriculture-D-Med-All	0.000000
	3879972	8430	Agriculture-D-High-All	0.000000
	3879972	9000	Water-All-All-All	0.000000
	3879972	10110	Irrigation-A-Low-All	0.000000
	3879972	10120	Irrigation-A-Med-All	0.000000
	3879972	10130	Irrigation-A-High-All	0.000000
	3879972	10210	Irrigation-B-Low-All	0.000000
	3879972	10220	Irrigation-B-Med-All	0.000000
	3879972	10230	Irrigation-B-High-All	0.000000
	3879972	10310	Irrigation-C-Low-All	0.000000
	3879972	10320	Irrigation-C-Med-All	0.000000
	3879972	10330	Irrigation-C-High-All	0.000000
	3879972	10410	Irrigation-D-Low-All	0.000000
	3879972	10420	Irrigation-D-Med-All	0.000000
	3879972	10430	Irrigation-D-High-All	0.000000
	3879974	1000	Developed_Impervious-All-All-All	0.000000
	3879974	2110	Developed_Pervious-A-Low-All	0.000000
	3879974	2120	Developed_Pervious-A-Med-All	0.000000
	3879974	2130	Developed_Pervious-A-High-All	0.000000
	3879974	2210	Developed_Pervious-B-Low-All	0.000000
	3879974	2220	Developed_Pervious-B-Med-All	0.000000
	3879974	2230	Developed_Pervious-B-High-All	0.000000
	3879974	2310	Developed_Pervious-C-Low-All	0.000000
	3879974	2320	Developed_Pervious-C-Med-All	0.000000
	3879974	2330	Developed_Pervious-C-High-All	0.000000
	3879974	2410	Developed_Pervious-D-Low-All	0.000000
	3879974	2420	Developed_Pervious-D-Med-All	0.000000
	3879974	2430	Developed_Pervious-D-High-All	0.000000
	3879974	3110	Barren-A-Low-All	0.000000
	3879974	3120	Barren-A-Med-All	0.000000
	3879974	3130	Barren-A-High-All	0.000000
	3879974	3210	Barren-B-Low-All	0.000000
	3879974	3220	Barren-B-Med-All	0.000000
	3879974	3230	Barren-B-High-All	0.000000
	3879974	3310	Barren-C-Low-All	0.000000
	3879974	3320	Barren-C-Med-All	0.000000
	3879974	3330	Barren-C-High-All	0.000000
	3879974	3410	Barren-D-Low-All	0.000000
	3879974	3420	Barren-D-Med-All	0.000000
	3879974	3430	Barren-D-High-All	0.000000
	3879974	4110	Forest-A-Low-All	0.000000
	3879974	4120	Forest-A-Med-All	0.000000
	3879974	4130	Forest-A-High-All	0.000000
	3879974	4210	Forest-B-Low-All	0.000000
	3879974	4220	Forest-B-Med-All	0.000000
	3879974	4230	Forest-B-High-All	0.000000
	3879974	4310	Forest-C-Low-All	0.000000
	3879974	4320	Forest-C-Med-All	0.000000
	3879974	4330	Forest-C-High-All	0.000000
	3879974	4410	Forest-D-Low-All	0.000000
	3879974	4420	Forest-D-Med-All	0.000000
	3879974	4430	Forest-D-High-All	0.000000
	3879974	5110	Scrub-A-Low-All	0.000000
	3879974	5120	Scrub-A-Med-All	0.000000
	3879974	5130	Scrub-A-High-All	0.000000
	3879974	5210	Scrub-B-Low-All	0.000000
	3879974	5220	Scrub-B-Med-All	0.000000
	3879974	5230	Scrub-B-High-All	0.000000
	3879974	5310	Scrub-C-Low-All	0.000000
	3879974	5320	Scrub-C-Med-All	0.000000
	3879974	5330	Scrub-C-High-All	0.000000
	3879974	5410	Scrub-D-Low-All	0.000000
	3879974	5420	Scrub-D-Med-All	0.000000
	3879974	5430	Scrub-D-High-All	0.000000
	3879974	6110	Grassland-A-Low-All	0.000000
	3879974	6120	Grassland-A-Med-All	0.000000
	3879974	6130	Grassland-A-High-All	0.000000
	3879974	6210	Grassland-B-Low-All	0.000000
	3879974	6220	Grassland-B-Med-All	0.000000
	3879974	6230	Grassland-B-High-All	0.000000
	3879974	6310	Grassland-C-Low-All	0.000000
	3879974	6320	Grassland-C-Med-All	0.000000
	3879974	6330	Grassland-C-High-All	0.000000
	3879974	6410	Grassland-D-Low-All	0.000000
	3879974	6420	Grassland-D-Med-All	0.000000
	3879974	6430	Grassland-D-High-All	0.000000
	3879974	7110	Pasture-A-Low-All	0.000000
	3879974	7120	Pasture-A-Med-All	0.000000
	3879974	7130	Pasture-A-High-All	0.000000
	3879974	7210	Pasture-B-Low-All	0.000000
	3879974	7220	Pasture-B-Med-All	0.000000
	3879974	7230	Pasture-B-High-All	0.000000
	3879974	7310	Pasture-C-Low-All	0.000000
	3879974	7320	Pasture-C-Med-All	0.000000
	3879974	7330	Pasture-C-High-All	0.000000
	3879974	7410	Pasture-D-Low-All	0.000000
	3879974	7420	Pasture-D-Med-All	0.000000
	3879974	7430	Pasture-D-High-All	0.000000
	3879974	8110	Agriculture-A-Low-All	0.000000
	3879974	8120	Agriculture-A-Med-All	0.000000
	3879974	8130	Agriculture-A-High-All	0.000000
	3879974	8210	Agriculture-B-Low-All	0.000000
	3879974	8220	Agriculture-B-Med-All	0.000000
	3879974	8230	Agriculture-B-High-All	0.000000
	3879974	8310	Agriculture-C-Low-All	0.000000
	3879974	8320	Agriculture-C-Med-All	0.000000
	3879974	8330	Agriculture-C-High-All	0.000000
	3879974	8410	Agriculture-D-Low-All	0.000000
	3879974	8420	Agriculture-D-Med-All	0.000000
	3879974	8430	Agriculture-D-High-All	0.000000
	3879974	9000	Water-All-All-All	0.000000
	3879974	10110	Irrigation-A-Low-All	0.000000
	3879974	10120	Irrigation-A-Med-All	0.000000
	3879974	10130	Irrigation-A-High-All	0.000000
	3879974	10210	Irrigation-B-Low-All	0.000000
	3879974	10220	Irrigation-B-Med-All	0.000000
	3879974	10230	Irrigation-B-High-All	0.000000
	3879974	10310	Irrigation-C-Low-All	0.000000
	3879974	10320	Irrigation-C-Med-All	0.000000
	3879974	10330	Irrigation-C-High-All	0.000000
	3879974	10410	Irrigation-D-Low-All	0.000000
	3879974	10420	Irrigation-D-Med-All	0.000000
	3879974	10430	Irrigation-D-High-All	0.000000
	3879976	1000	Developed_Impervious-All-All-All	0.000000
	3879976	2110	Developed_Pervious-A-Low-All	0.000000
	3879976	2120	Developed_Pervious-A-Med-All	0.000000
	3879976	2130	Developed_Pervious-A-High-All	0.000000
	3879976	2210	Developed_Pervious-B-Low-All	0.000000
	3879976	2220	Developed_Pervious-B-Med-All	0.000000
	3879976	2230	Developed_Pervious-B-High-All	0.000000
	3879976	2310	Developed_Pervious-C-Low-All	0.000000
	3879976	2320	Developed_Pervious-C-Med-All	0.000000
	3879976	2330	Developed_Pervious-C-High-All	0.000000
	3879976	2410	Developed_Pervious-D-Low-All	0.000000
	3879976	2420	Developed_Pervious-D-Med-All	0.000000
	3879976	2430	Developed_Pervious-D-High-All	0.000000
	3879976	3110	Barren-A-Low-All	0.000000
	3879976	3120	Barren-A-Med-All	0.000000
	3879976	3130	Barren-A-High-All	0.000000
	3879976	3210	Barren-B-Low-All	0.000000
	3879976	3220	Barren-B-Med-All	0.000000
	3879976	3230	Barren-B-High-All	0.000000
	3879976	3310	Barren-C-Low-All	0.000000
	3879976	3320	Barren-C-Med-All	0.000000
	3879976	3330	Barren-C-High-All	0.000000
	3879976	3410	Barren-D-Low-All	0.000000
	3879976	3420	Barren-D-Med-All	0.000000
	3879976	3430	Barren-D-High-All	0.000000
	3879976	4110	Forest-A-Low-All	0.000000
	3879976	4120	Forest-A-Med-All	0.000000
	3879976	4130	Forest-A-High-All	0.000000
	3879976	4210	Forest-B-Low-All	0.000000
	3879976	4220	Forest-B-Med-All	0.000000
	3879976	4230	Forest-B-High-All	0.000000
	3879976	4310	Forest-C-Low-All	0.000000
	3879976	4320	Forest-C-Med-All	0.000000
	3879976	4330	Forest-C-High-All	0.000000
	3879976	4410	Forest-D-Low-All	0.000000
	3879976	4420	Forest-D-Med-All	0.000000
	3879976	4430	Forest-D-High-All	0.000000
	3879976	5110	Scrub-A-Low-All	0.000000
	3879976	5120	Scrub-A-Med-All	0.000000
	3879976	5130	Scrub-A-High-All	0.000000
	3879976	5210	Scrub-B-Low-All	0.000000
	3879976	5220	Scrub-B-Med-All	0.000000
	3879976	5230	Scrub-B-High-All	0.000000
	3879976	5310	Scrub-C-Low-All	0.000000
	3879976	5320	Scrub-C-Med-All	0.000000
	3879976	5330	Scrub-C-High-All	0.000000
	3879976	5410	Scrub-D-Low-All	0.000000
	3879976	5420	Scrub-D-Med-All	0.000000
	3879976	5430	Scrub-D-High-All	0.000000
	3879976	6110	Grassland-A-Low-All	0.000000
	3879976	6120	Grassland-A-Med-All	0.000000
	3879976	6130	Grassland-A-High-All	0.000000
	3879976	6210	Grassland-B-Low-All	0.000000
	3879976	6220	Grassland-B-Med-All	0.000000
	3879976	6230	Grassland-B-High-All	0.000000
	3879976	6310	Grassland-C-Low-All	0.000000
	3879976	6320	Grassland-C-Med-All	0.000000
	3879976	6330	Grassland-C-High-All	0.000000
	3879976	6410	Grassland-D-Low-All	0.000000
	3879976	6420	Grassland-D-Med-All	0.000000
	3879976	6430	Grassland-D-High-All	0.000000
	3879976	7110	Pasture-A-Low-All	0.000000
	3879976	7120	Pasture-A-Med-All	0.000000
	3879976	7130	Pasture-A-High-All	0.000000
	3879976	7210	Pasture-B-Low-All	0.000000
	3879976	7220	Pasture-B-Med-All	0.000000
	3879976	7230	Pasture-B-High-All	0.000000
	3879976	7310	Pasture-C-Low-All	0.000000
	3879976	7320	Pasture-C-Med-All	0.000000
	3879976	7330	Pasture-C-High-All	0.000000
	3879976	7410	Pasture-D-Low-All	0.000000
	3879976	7420	Pasture-D-Med-All	0.000000
	3879976	7430	Pasture-D-High-All	0.000000
	3879976	8110	Agriculture-A-Low-All	0.000000
	3879976	8120	Agriculture-A-Med-All	0.000000
	3879976	8130	Agriculture-A-High-All	0.000000
	3879976	8210	Agriculture-B-Low-All	0.000000
	3879976	8220	Agriculture-B-Med-All	0.000000
	3879976	8230	Agriculture-B-High-All	0.000000
	3879976	8310	Agriculture-C-Low-All	0.000000
	3879976	8320	Agriculture-C-Med-All	0.000000
	3879976	8330	Agriculture-C-High-All	0.000000
	3879976	8410	Agriculture-D-Low-All	0.000000
	3879976	8420	Agriculture-D-Med-All	0.000000
	3879976	8430	Agriculture-D-High-All	0.000000
	3879976	9000	Water-All-All-All	0.000000
	3879976	10110	Irrigation-A-Low-All	0.000000
	3879976	10120	Irrigation-A-Med-All	0.000000
	3879976	10130	Irrigation-A-High-All	0.000000
	3879976	10210	Irrigation-B-Low-All	0.000000
	3879976	10220	Irrigation-B-Med-All	0.000000
	3879976	10230	Irrigation-B-High-All	0.000000
	3879976	10310	Irrigation-C-Low-All	0.000000
	3879976	10320	Irrigation-C-Med-All	0.000000
	3879976	10330	Irrigation-C-High-All	0.000000
	3879976	10410	Irrigation-D-Low-All	0.000000
	3879976	10420	Irrigation-D-Med-All	0.000000
	3879976	10430	Irrigation-D-High-All	0.000000
	3879978	1000	Developed_Impervious-All-All-All	0.000000
	3879978	2110	Developed_Pervious-A-Low-All	0.000000
	3879978	2120	Developed_Pervious-A-Med-All	0.000000
	3879978	2130	Developed_Pervious-A-High-All	0.000000
	3879978	2210	Developed_Pervious-B-Low-All	0.000000
	3879978	2220	Developed_Pervious-B-Med-All	0.000000
	3879978	2230	Developed_Pervious-B-High-All	0.000000
	3879978	2310	Developed_Pervious-C-Low-All	0.000000
	3879978	2320	Developed_Pervious-C-Med-All	0.000000
	3879978	2330	Developed_Pervious-C-High-All	0.000000
	3879978	2410	Developed_Pervious-D-Low-All	0.000000
	3879978	2420	Developed_Pervious-D-Med-All	0.000000
	3879978	2430	Developed_Pervious-D-High-All	0.000000
	3879978	3110	Barren-A-Low-All	0.000000
	3879978	3120	Barren-A-Med-All	0.000000
	3879978	3130	Barren-A-High-All	0.000000
	3879978	3210	Barren-B-Low-All	0.000000
	3879978	3220	Barren-B-Med-All	0.000000
	3879978	3230	Barren-B-High-All	0.000000
	3879978	3310	Barren-C-Low-All	0.000000
	3879978	3320	Barren-C-Med-All	0.000000
	3879978	3330	Barren-C-High-All	0.000000
	3879978	3410	Barren-D-Low-All	0.000000
	3879978	3420	Barren-D-Med-All	0.000000
	3879978	3430	Barren-D-High-All	0.000000
	3879978	4110	Forest-A-Low-All	0.000000
	3879978	4120	Forest-A-Med-All	0.000000
	3879978	4130	Forest-A-High-All	0.000000
	3879978	4210	Forest-B-Low-All	0.000000
	3879978	4220	Forest-B-Med-All	0.000000
	3879978	4230	Forest-B-High-All	0.000000
	3879978	4310	Forest-C-Low-All	0.000000
	3879978	4320	Forest-C-Med-All	0.000000
	3879978	4330	Forest-C-High-All	0.000000
	3879978	4410	Forest-D-Low-All	0.000000
	3879978	4420	Forest-D-Med-All	0.000000
	3879978	4430	Forest-D-High-All	0.000000
	3879978	5110	Scrub-A-Low-All	0.000000
	3879978	5120	Scrub-A-Med-All	0.000000
	3879978	5130	Scrub-A-High-All	0.000000
	3879978	5210	Scrub-B-Low-All	0.000000
	3879978	5220	Scrub-B-Med-All	0.000000
	3879978	5230	Scrub-B-High-All	0.000000
	3879978	5310	Scrub-C-Low-All	0.000000
	3879978	5320	Scrub-C-Med-All	0.000000
	3879978	5330	Scrub-C-High-All	0.000000
	3879978	5410	Scrub-D-Low-All	0.000000
	3879978	5420	Scrub-D-Med-All	0.000000
	3879978	5430	Scrub-D-High-All	0.000000
	3879978	6110	Grassland-A-Low-All	0.000000
	3879978	6120	Grassland-A-Med-All	0.000000
	3879978	6130	Grassland-A-High-All	0.000000
	3879978	6210	Grassland-B-Low-All	0.000000
	3879978	6220	Grassland-B-Med-All	0.000000
	3879978	6230	Grassland-B-High-All	0.000000
	3879978	6310	Grassland-C-Low-All	0.000000
	3879978	6320	Grassland-C-Med-All	0.000000
	3879978	6330	Grassland-C-High-All	0.000000
	3879978	6410	Grassland-D-Low-All	0.000000
	3879978	6420	Grassland-D-Med-All	0.000000
	3879978	6430	Grassland-D-High-All	0.000000
	3879978	7110	Pasture-A-Low-All	0.000000
	3879978	7120	Pasture-A-Med-All	0.000000
	3879978	7130	Pasture-A-High-All	0.000000
	3879978	7210	Pasture-B-Low-All	0.000000
	3879978	7220	Pasture-B-Med-All	0.000000
	3879978	7230	Pasture-B-High-All	0.000000
	3879978	7310	Pasture-C-Low-All	0.000000
	3879978	7320	Pasture-C-Med-All	0.000000
	3879978	7330	Pasture-C-High-All	0.000000
	3879978	7410	Pasture-D-Low-All	0.000000
	3879978	7420	Pasture-D-Med-All	0.000000
	3879978	7430	Pasture-D-High-All	0.000000
	3879978	8110	Agriculture-A-Low-All	0.000000
	3879978	8120	Agriculture-A-Med-All	0.000000
	3879978	8130	Agriculture-A-High-All	0.000000
	3879978	8210	Agriculture-B-Low-All	0.000000
	3879978	8220	Agriculture-B-Med-All	0.000000
	3879978	8230	Agriculture-B-High-All	0.000000
	3879978	8310	Agriculture-C-Low-All	0.000000
	3879978	8320	Agriculture-C-Med-All	0.000000
	3879978	8330	Agriculture-C-High-All	0.000000
	3879978	8410	Agriculture-D-Low-All	0.000000
	3879978	8420	Agriculture-D-Med-All	0.000000
	3879978	8430	Agriculture-D-High-All	0.000000
	3879978	9000	Water-All-All-All	0.000000
	3879978	10110	Irrigation-A-Low-All	0.000000
	3879978	10120	Irrigation-A-Med-All	0.000000
	3879978	10130	Irrigation-A-High-All	0.000000
	3879978	10210	Irrigation-B-Low-All	0.000000
	3879978	10220	Irrigation-B-Med-All	0.000000
	3879978	10230	Irrigation-B-High-All	0.000000
	3879978	10310	Irrigation-C-Low-All	0.000000
	3879978	10320	Irrigation-C-Med-All	0.000000
	3879978	10330	Irrigation-C-High-All	0.000000
	3879978	10410	Irrigation-D-Low-All	0.000000
	3879978	10420	Irrigation-D-Med-All	0.000000
	3879978	10430	Irrigation-D-High-All	0.000000
	3879980	1000	Developed_Impervious-All-All-All	0.000000
	3879980	2110	Developed_Pervious-A-Low-All	0.000000
	3879980	2120	Developed_Pervious-A-Med-All	0.000000
	3879980	2130	Developed_Pervious-A-High-All	0.000000
	3879980	2210	Developed_Pervious-B-Low-All	0.000000
	3879980	2220	Developed_Pervious-B-Med-All	0.000000
	3879980	2230	Developed_Pervious-B-High-All	0.000000
	3879980	2310	Developed_Pervious-C-Low-All	0.000000
	3879980	2320	Developed_Pervious-C-Med-All	0.000000
	3879980	2330	Developed_Pervious-C-High-All	0.000000
	3879980	2410	Developed_Pervious-D-Low-All	0.000000
	3879980	2420	Developed_Pervious-D-Med-All	0.000000
	3879980	2430	Developed_Pervious-D-High-All	0.000000
	3879980	3110	Barren-A-Low-All	0.000000
	3879980	3120	Barren-A-Med-All	0.000000
	3879980	3130	Barren-A-High-All	0.000000
	3879980	3210	Barren-B-Low-All	0.000000
	3879980	3220	Barren-B-Med-All	0.000000
	3879980	3230	Barren-B-High-All	0.000000
	3879980	3310	Barren-C-Low-All	0.000000
	3879980	3320	Barren-C-Med-All	0.000000
	3879980	3330	Barren-C-High-All	0.000000
	3879980	3410	Barren-D-Low-All	0.000000
	3879980	3420	Barren-D-Med-All	0.000000
	3879980	3430	Barren-D-High-All	0.000000
	3879980	4110	Forest-A-Low-All	0.000000
	3879980	4120	Forest-A-Med-All	0.000000
	3879980	4130	Forest-A-High-All	0.000000
	3879980	4210	Forest-B-Low-All	0.000000
	3879980	4220	Forest-B-Med-All	0.000000
	3879980	4230	Forest-B-High-All	0.000000
	3879980	4310	Forest-C-Low-All	0.000000
	3879980	4320	Forest-C-Med-All	0.000000
	3879980	4330	Forest-C-High-All	0.000000
	3879980	4410	Forest-D-Low-All	0.000000
	3879980	4420	Forest-D-Med-All	0.000000
	3879980	4430	Forest-D-High-All	0.000000
	3879980	5110	Scrub-A-Low-All	0.000000
	3879980	5120	Scrub-A-Med-All	0.000000
	3879980	5130	Scrub-A-High-All	0.000000
	3879980	5210	Scrub-B-Low-All	0.000000
	3879980	5220	Scrub-B-Med-All	0.000000
	3879980	5230	Scrub-B-High-All	0.000000
	3879980	5310	Scrub-C-Low-All	0.000000
	3879980	5320	Scrub-C-Med-All	0.000000
	3879980	5330	Scrub-C-High-All	0.000000
	3879980	5410	Scrub-D-Low-All	0.000000
	3879980	5420	Scrub-D-Med-All	0.000000
	3879980	5430	Scrub-D-High-All	0.000000
	3879980	6110	Grassland-A-Low-All	0.000000
	3879980	6120	Grassland-A-Med-All	0.000000
	3879980	6130	Grassland-A-High-All	0.000000
	3879980	6210	Grassland-B-Low-All	0.000000
	3879980	6220	Grassland-B-Med-All	0.000000
	3879980	6230	Grassland-B-High-All	0.000000
	3879980	6310	Grassland-C-Low-All	0.000000
	3879980	6320	Grassland-C-Med-All	0.000000
	3879980	6330	Grassland-C-High-All	0.000000
	3879980	6410	Grassland-D-Low-All	0.000000
	3879980	6420	Grassland-D-Med-All	0.000000
	3879980	6430	Grassland-D-High-All	0.000000
	3879980	7110	Pasture-A-Low-All	0.000000
	3879980	7120	Pasture-A-Med-All	0.000000
	3879980	7130	Pasture-A-High-All	0.000000
	3879980	7210	Pasture-B-Low-All	0.000000
	3879980	7220	Pasture-B-Med-All	0.000000
	3879980	7230	Pasture-B-High-All	0.000000
	3879980	7310	Pasture-C-Low-All	0.000000
	3879980	7320	Pasture-C-Med-All	0.000000
	3879980	7330	Pasture-C-High-All	0.000000
	3879980	7410	Pasture-D-Low-All	0.000000
	3879980	7420	Pasture-D-Med-All	0.000000
	3879980	7430	Pasture-D-High-All	0.000000
	3879980	8110	Agriculture-A-Low-All	0.000000
	3879980	8120	Agriculture-A-Med-All	0.000000
	3879980	8130	Agriculture-A-High-All	0.000000
	3879980	8210	Agriculture-B-Low-All	0.000000
	3879980	8220	Agriculture-B-Med-All	0.000000
	3879980	8230	Agriculture-B-High-All	0.000000
	3879980	8310	Agriculture-C-Low-All	0.000000
	3879980	8320	Agriculture-C-Med-All	0.000000
	3879980	8330	Agriculture-C-High-All	0.000000
	3879980	8410	Agriculture-D-Low-All	0.000000
	3879980	8420	Agriculture-D-Med-All	0.000000
	3879980	8430	Agriculture-D-High-All	0.000000
	3879980	9000	Water-All-All-All	0.000000
	3879980	10110	Irrigation-A-Low-All	0.000000
	3879980	10120	Irrigation-A-Med-All	0.000000
	3879980	10130	Irrigation-A-High-All	0.000000
	3879980	10210	Irrigation-B-Low-All	0.000000
	3879980	10220	Irrigation-B-Med-All	0.000000
	3879980	10230	Irrigation-B-High-All	0.000000
	3879980	10310	Irrigation-C-Low-All	0.000000
	3879980	10320	Irrigation-C-Med-All	0.000000
	3879980	10330	Irrigation-C-High-All	0.000000
	3879980	10410	Irrigation-D-Low-All	0.000000
	3879980	10420	Irrigation-D-Med-All	0.000000
	3879980	10430	Irrigation-D-High-All	0.000000
	3879982	1000	Developed_Impervious-All-All-All	0.000000
	3879982	2110	Developed_Pervious-A-Low-All	0.000000
	3879982	2120	Developed_Pervious-A-Med-All	0.000000
	3879982	2130	Developed_Pervious-A-High-All	0.000000
	3879982	2210	Developed_Pervious-B-Low-All	0.000000
	3879982	2220	Developed_Pervious-B-Med-All	0.000000
	3879982	2230	Developed_Pervious-B-High-All	0.000000
	3879982	2310	Developed_Pervious-C-Low-All	0.000000
	3879982	2320	Developed_Pervious-C-Med-All	0.000000
	3879982	2330	Developed_Pervious-C-High-All	0.000000
	3879982	2410	Developed_Pervious-D-Low-All	0.000000
	3879982	2420	Developed_Pervious-D-Med-All	0.000000
	3879982	2430	Developed_Pervious-D-High-All	0.000000
	3879982	3110	Barren-A-Low-All	0.000000
	3879982	3120	Barren-A-Med-All	0.000000
	3879982	3130	Barren-A-High-All	0.000000
	3879982	3210	Barren-B-Low-All	0.000000
	3879982	3220	Barren-B-Med-All	0.000000
	3879982	3230	Barren-B-High-All	0.000000
	3879982	3310	Barren-C-Low-All	0.000000
	3879982	3320	Barren-C-Med-All	0.000000
	3879982	3330	Barren-C-High-All	0.000000
	3879982	3410	Barren-D-Low-All	0.000000
	3879982	3420	Barren-D-Med-All	0.000000
	3879982	3430	Barren-D-High-All	0.000000
	3879982	4110	Forest-A-Low-All	0.000000
	3879982	4120	Forest-A-Med-All	0.000000
	3879982	4130	Forest-A-High-All	0.000000
	3879982	4210	Forest-B-Low-All	0.000000
	3879982	4220	Forest-B-Med-All	0.000000
	3879982	4230	Forest-B-High-All	0.000000
	3879982	4310	Forest-C-Low-All	0.000000
	3879982	4320	Forest-C-Med-All	0.000000
	3879982	4330	Forest-C-High-All	0.000000
	3879982	4410	Forest-D-Low-All	0.000000
	3879982	4420	Forest-D-Med-All	0.000000
	3879982	4430	Forest-D-High-All	0.000000
	3879982	5110	Scrub-A-Low-All	0.000000
	3879982	5120	Scrub-A-Med-All	0.000000
	3879982	5130	Scrub-A-High-All	0.000000
	3879982	5210	Scrub-B-Low-All	0.000000
	3879982	5220	Scrub-B-Med-All	0.000000
	3879982	5230	Scrub-B-High-All	0.000000
	3879982	5310	Scrub-C-Low-All	0.000000
	3879982	5320	Scrub-C-Med-All	0.000000
	3879982	5330	Scrub-C-High-All	0.000000
	3879982	5410	Scrub-D-Low-All	0.000000
	3879982	5420	Scrub-D-Med-All	0.000000
	3879982	5430	Scrub-D-High-All	0.000000
	3879982	6110	Grassland-A-Low-All	0.000000
	3879982	6120	Grassland-A-Med-All	0.000000
	3879982	6130	Grassland-A-High-All	0.000000
	3879982	6210	Grassland-B-Low-All	0.000000
	3879982	6220	Grassland-B-Med-All	0.000000
	3879982	6230	Grassland-B-High-All	0.000000
	3879982	6310	Grassland-C-Low-All	0.000000
	3879982	6320	Grassland-C-Med-All	0.000000
	3879982	6330	Grassland-C-High-All	0.000000
	3879982	6410	Grassland-D-Low-All	0.000000
	3879982	6420	Grassland-D-Med-All	0.000000
	3879982	6430	Grassland-D-High-All	0.000000
	3879982	7110	Pasture-A-Low-All	0.000000
	3879982	7120	Pasture-A-Med-All	0.000000
	3879982	7130	Pasture-A-High-All	0.000000
	3879982	7210	Pasture-B-Low-All	0.000000
	3879982	7220	Pasture-B-Med-All	0.000000
	3879982	7230	Pasture-B-High-All	0.000000
	3879982	7310	Pasture-C-Low-All	0.000000
	3879982	7320	Pasture-C-Med-All	0.000000
	3879982	7330	Pasture-C-High-All	0.000000
	3879982	7410	Pasture-D-Low-All	0.000000
	3879982	7420	Pasture-D-Med-All	0.000000
	3879982	7430	Pasture-D-High-All	0.000000
	3879982	8110	Agriculture-A-Low-All	0.000000
	3879982	8120	Agriculture-A-Med-All	0.000000
	3879982	8130	Agriculture-A-High-All	0.000000
	3879982	8210	Agriculture-B-Low-All	0.000000
	3879982	8220	Agriculture-B-Med-All	0.000000
	3879982	8230	Agriculture-B-High-All	0.000000
	3879982	8310	Agriculture-C-Low-All	0.000000
	3879982	8320	Agriculture-C-Med-All	0.000000
	3879982	8330	Agriculture-C-High-All	0.000000
	3879982	8410	Agriculture-D-Low-All	0.000000
	3879982	8420	Agriculture-D-Med-All	0.000000
	3879982	8430	Agriculture-D-High-All	0.000000
	3879982	9000	Water-All-All-All	0.000000
	3879982	10110	Irrigation-A-Low-All	0.000000
	3879982	10120	Irrigation-A-Med-All	0.000000
	3879982	10130	Irrigation-A-High-All	0.000000
	3879982	10210	Irrigation-B-Low-All	0.000000
	3879982	10220	Irrigation-B-Med-All	0.000000
	3879982	10230	Irrigation-B-High-All	0.000000
	3879982	10310	Irrigation-C-Low-All	0.000000
	3879982	10320	Irrigation-C-Med-All	0.000000
	3879982	10330	Irrigation-C-High-All	0.000000
	3879982	10410	Irrigation-D-Low-All	0.000000
	3879982	10420	Irrigation-D-Med-All	0.000000
	3879982	10430	Irrigation-D-High-All	0.000000
	3879984	1000	Developed_Impervious-All-All-All	0.000000
	3879984	2110	Developed_Pervious-A-Low-All	0.000000
	3879984	2120	Developed_Pervious-A-Med-All	0.000000
	3879984	2130	Developed_Pervious-A-High-All	0.000000
	3879984	2210	Developed_Pervious-B-Low-All	0.000000
	3879984	2220	Developed_Pervious-B-Med-All	0.000000
	3879984	2230	Developed_Pervious-B-High-All	0.000000
	3879984	2310	Developed_Pervious-C-Low-All	0.000000
	3879984	2320	Developed_Pervious-C-Med-All	0.000000
	3879984	2330	Developed_Pervious-C-High-All	0.000000
	3879984	2410	Developed_Pervious-D-Low-All	0.000000
	3879984	2420	Developed_Pervious-D-Med-All	0.000000
	3879984	2430	Developed_Pervious-D-High-All	0.000000
	3879984	3110	Barren-A-Low-All	0.000000
	3879984	3120	Barren-A-Med-All	0.000000
	3879984	3130	Barren-A-High-All	0.000000
	3879984	3210	Barren-B-Low-All	0.000000
	3879984	3220	Barren-B-Med-All	0.000000
	3879984	3230	Barren-B-High-All	0.000000
	3879984	3310	Barren-C-Low-All	0.000000
	3879984	3320	Barren-C-Med-All	0.000000
	3879984	3330	Barren-C-High-All	0.000000
	3879984	3410	Barren-D-Low-All	0.000000
	3879984	3420	Barren-D-Med-All	0.000000
	3879984	3430	Barren-D-High-All	0.000000
	3879984	4110	Forest-A-Low-All	0.000000
	3879984	4120	Forest-A-Med-All	0.000000
	3879984	4130	Forest-A-High-All	0.000000
	3879984	4210	Forest-B-Low-All	0.000000
	3879984	4220	Forest-B-Med-All	0.000000
	3879984	4230	Forest-B-High-All	0.000000
	3879984	4310	Forest-C-Low-All	0.000000
	3879984	4320	Forest-C-Med-All	0.000000
	3879984	4330	Forest-C-High-All	0.000000
	3879984	4410	Forest-D-Low-All	0.000000
	3879984	4420	Forest-D-Med-All	0.000000
	3879984	4430	Forest-D-High-All	0.000000
	3879984	5110	Scrub-A-Low-All	0.000000
	3879984	5120	Scrub-A-Med-All	0.000000
	3879984	5130	Scrub-A-High-All	0.000000
	3879984	5210	Scrub-B-Low-All	0.000000
	3879984	5220	Scrub-B-Med-All	0.000000
	3879984	5230	Scrub-B-High-All	0.000000
	3879984	5310	Scrub-C-Low-All	0.000000
	3879984	5320	Scrub-C-Med-All	0.000000
	3879984	5330	Scrub-C-High-All	0.000000
	3879984	5410	Scrub-D-Low-All	0.000000
	3879984	5420	Scrub-D-Med-All	0.000000
	3879984	5430	Scrub-D-High-All	0.000000
	3879984	6110	Grassland-A-Low-All	0.000000
	3879984	6120	Grassland-A-Med-All	0.000000
	3879984	6130	Grassland-A-High-All	0.000000
	3879984	6210	Grassland-B-Low-All	0.000000
	3879984	6220	Grassland-B-Med-All	0.000000
	3879984	6230	Grassland-B-High-All	0.000000
	3879984	6310	Grassland-C-Low-All	0.000000
	3879984	6320	Grassland-C-Med-All	0.000000
	3879984	6330	Grassland-C-High-All	0.000000
	3879984	6410	Grassland-D-Low-All	0.000000
	3879984	6420	Grassland-D-Med-All	0.000000
	3879984	6430	Grassland-D-High-All	0.000000
	3879984	7110	Pasture-A-Low-All	0.000000
	3879984	7120	Pasture-A-Med-All	0.000000
	3879984	7130	Pasture-A-High-All	0.000000
	3879984	7210	Pasture-B-Low-All	0.000000
	3879984	7220	Pasture-B-Med-All	0.000000
	3879984	7230	Pasture-B-High-All	0.000000
	3879984	7310	Pasture-C-Low-All	0.000000
	3879984	7320	Pasture-C-Med-All	0.000000
	3879984	7330	Pasture-C-High-All	0.000000
	3879984	7410	Pasture-D-Low-All	0.000000
	3879984	7420	Pasture-D-Med-All	0.000000
	3879984	7430	Pasture-D-High-All	0.000000
	3879984	8110	Agriculture-A-Low-All	0.000000
	3879984	8120	Agriculture-A-Med-All	0.000000
	3879984	8130	Agriculture-A-High-All	0.000000
	3879984	8210	Agriculture-B-Low-All	0.000000
	3879984	8220	Agriculture-B-Med-All	0.000000
	3879984	8230	Agriculture-B-High-All	0.000000
	3879984	8310	Agriculture-C-Low-All	0.000000
	3879984	8320	Agriculture-C-Med-All	0.000000
	3879984	8330	Agriculture-C-High-All	0.000000
	3879984	8410	Agriculture-D-Low-All	0.000000
	3879984	8420	Agriculture-D-Med-All	0.000000
	3879984	8430	Agriculture-D-High-All	0.000000
	3879984	9000	Water-All-All-All	0.000000
	3879984	10110	Irrigation-A-Low-All	0.000000
	3879984	10120	Irrigation-A-Med-All	0.000000
	3879984	10130	Irrigation-A-High-All	0.000000
	3879984	10210	Irrigation-B-Low-All	0.000000
	3879984	10220	Irrigation-B-Med-All	0.000000
	3879984	10230	Irrigation-B-High-All	0.000000
	3879984	10310	Irrigation-C-Low-All	0.000000
	3879984	10320	Irrigation-C-Med-All	0.000000
	3879984	10330	Irrigation-C-High-All	0.000000
	3879984	10410	Irrigation-D-Low-All	0.000000
	3879984	10420	Irrigation-D-Med-All	0.000000
	3879984	10430	Irrigation-D-High-All	0.000000
	3879986	1000	Developed_Impervious-All-All-All	0.000000
	3879986	2110	Developed_Pervious-A-Low-All	0.000000
	3879986	2120	Developed_Pervious-A-Med-All	0.000000
	3879986	2130	Developed_Pervious-A-High-All	0.000000
	3879986	2210	Developed_Pervious-B-Low-All	0.000000
	3879986	2220	Developed_Pervious-B-Med-All	0.000000
	3879986	2230	Developed_Pervious-B-High-All	0.000000
	3879986	2310	Developed_Pervious-C-Low-All	0.000000
	3879986	2320	Developed_Pervious-C-Med-All	0.000000
	3879986	2330	Developed_Pervious-C-High-All	0.000000
	3879986	2410	Developed_Pervious-D-Low-All	0.000000
	3879986	2420	Developed_Pervious-D-Med-All	0.000000
	3879986	2430	Developed_Pervious-D-High-All	0.000000
	3879986	3110	Barren-A-Low-All	0.000000
	3879986	3120	Barren-A-Med-All	0.000000
	3879986	3130	Barren-A-High-All	0.000000
	3879986	3210	Barren-B-Low-All	0.000000
	3879986	3220	Barren-B-Med-All	0.000000
	3879986	3230	Barren-B-High-All	0.000000
	3879986	3310	Barren-C-Low-All	0.000000
	3879986	3320	Barren-C-Med-All	0.000000
	3879986	3330	Barren-C-High-All	0.000000
	3879986	3410	Barren-D-Low-All	0.000000
	3879986	3420	Barren-D-Med-All	0.000000
	3879986	3430	Barren-D-High-All	0.000000
	3879986	4110	Forest-A-Low-All	0.000000
	3879986	4120	Forest-A-Med-All	0.000000
	3879986	4130	Forest-A-High-All	0.000000
	3879986	4210	Forest-B-Low-All	0.000000
	3879986	4220	Forest-B-Med-All	0.000000
	3879986	4230	Forest-B-High-All	0.000000
	3879986	4310	Forest-C-Low-All	0.000000
	3879986	4320	Forest-C-Med-All	0.000000
	3879986	4330	Forest-C-High-All	0.000000
	3879986	4410	Forest-D-Low-All	0.000000
	3879986	4420	Forest-D-Med-All	0.000000
	3879986	4430	Forest-D-High-All	0.000000
	3879986	5110	Scrub-A-Low-All	0.000000
	3879986	5120	Scrub-A-Med-All	0.000000
	3879986	5130	Scrub-A-High-All	0.000000
	3879986	5210	Scrub-B-Low-All	0.000000
	3879986	5220	Scrub-B-Med-All	0.000000
	3879986	5230	Scrub-B-High-All	0.000000
	3879986	5310	Scrub-C-Low-All	0.000000
	3879986	5320	Scrub-C-Med-All	0.000000
	3879986	5330	Scrub-C-High-All	0.000000
	3879986	5410	Scrub-D-Low-All	0.000000
	3879986	5420	Scrub-D-Med-All	0.000000
	3879986	5430	Scrub-D-High-All	0.000000
	3879986	6110	Grassland-A-Low-All	0.000000
	3879986	6120	Grassland-A-Med-All	0.000000
	3879986	6130	Grassland-A-High-All	0.000000
	3879986	6210	Grassland-B-Low-All	0.000000
	3879986	6220	Grassland-B-Med-All	0.000000
	3879986	6230	Grassland-B-High-All	0.000000
	3879986	6310	Grassland-C-Low-All	0.000000
	3879986	6320	Grassland-C-Med-All	0.000000
	3879986	6330	Grassland-C-High-All	0.000000
	3879986	6410	Grassland-D-Low-All	0.000000
	3879986	6420	Grassland-D-Med-All	0.000000
	3879986	6430	Grassland-D-High-All	0.000000
	3879986	7110	Pasture-A-Low-All	0.000000
	3879986	7120	Pasture-A-Med-All	0.000000
	3879986	7130	Pasture-A-High-All	0.000000
	3879986	7210	Pasture-B-Low-All	0.000000
	3879986	7220	Pasture-B-Med-All	0.000000
	3879986	7230	Pasture-B-High-All	0.000000
	3879986	7310	Pasture-C-Low-All	0.000000
	3879986	7320	Pasture-C-Med-All	0.000000
	3879986	7330	Pasture-C-High-All	0.000000
	3879986	7410	Pasture-D-Low-All	0.000000
	3879986	7420	Pasture-D-Med-All	0.000000
	3879986	7430	Pasture-D-High-All	0.000000
	3879986	8110	Agriculture-A-Low-All	0.000000
	3879986	8120	Agriculture-A-Med-All	0.000000
	3879986	8130	Agriculture-A-High-All	0.000000
	3879986	8210	Agriculture-B-Low-All	0.000000
	3879986	8220	Agriculture-B-Med-All	0.000000
	3879986	8230	Agriculture-B-High-All	0.000000
	3879986	8310	Agriculture-C-Low-All	0.000000
	3879986	8320	Agriculture-C-Med-All	0.000000
	3879986	8330	Agriculture-C-High-All	0.000000
	3879986	8410	Agriculture-D-Low-All	0.000000
	3879986	8420	Agriculture-D-Med-All	0.000000
	3879986	8430	Agriculture-D-High-All	0.000000
	3879986	9000	Water-All-All-All	0.000000
	3879986	10110	Irrigation-A-Low-All	0.000000
	3879986	10120	Irrigation-A-Med-All	0.000000
	3879986	10130	Irrigation-A-High-All	0.000000
	3879986	10210	Irrigation-B-Low-All	0.000000
	3879986	10220	Irrigation-B-Med-All	0.000000
	3879986	10230	Irrigation-B-High-All	0.000000
	3879986	10310	Irrigation-C-Low-All	0.000000
	3879986	10320	Irrigation-C-Med-All	0.000000
	3879986	10330	Irrigation-C-High-All	0.000000
	3879986	10410	Irrigation-D-Low-All	0.000000
	3879986	10420	Irrigation-D-Med-All	0.000000
	3879986	10430	Irrigation-D-High-All	0.000000
	3879988	1000	Developed_Impervious-All-All-All	0.000000
	3879988	2110	Developed_Pervious-A-Low-All	0.000000
	3879988	2120	Developed_Pervious-A-Med-All	0.000000
	3879988	2130	Developed_Pervious-A-High-All	0.000000
	3879988	2210	Developed_Pervious-B-Low-All	0.000000
	3879988	2220	Developed_Pervious-B-Med-All	0.000000
	3879988	2230	Developed_Pervious-B-High-All	0.000000
	3879988	2310	Developed_Pervious-C-Low-All	0.000000
	3879988	2320	Developed_Pervious-C-Med-All	0.000000
	3879988	2330	Developed_Pervious-C-High-All	0.000000
	3879988	2410	Developed_Pervious-D-Low-All	0.000000
	3879988	2420	Developed_Pervious-D-Med-All	0.000000
	3879988	2430	Developed_Pervious-D-High-All	0.000000
	3879988	3110	Barren-A-Low-All	0.000000
	3879988	3120	Barren-A-Med-All	0.000000
	3879988	3130	Barren-A-High-All	0.000000
	3879988	3210	Barren-B-Low-All	0.000000
	3879988	3220	Barren-B-Med-All	0.000000
	3879988	3230	Barren-B-High-All	0.000000
	3879988	3310	Barren-C-Low-All	0.000000
	3879988	3320	Barren-C-Med-All	0.000000
	3879988	3330	Barren-C-High-All	0.000000
	3879988	3410	Barren-D-Low-All	0.000000
	3879988	3420	Barren-D-Med-All	0.000000
	3879988	3430	Barren-D-High-All	0.000000
	3879988	4110	Forest-A-Low-All	0.000000
	3879988	4120	Forest-A-Med-All	0.000000
	3879988	4130	Forest-A-High-All	0.000000
	3879988	4210	Forest-B-Low-All	0.000000
	3879988	4220	Forest-B-Med-All	0.000000
	3879988	4230	Forest-B-High-All	0.000000
	3879988	4310	Forest-C-Low-All	0.000000
	3879988	4320	Forest-C-Med-All	0.000000
	3879988	4330	Forest-C-High-All	0.000000
	3879988	4410	Forest-D-Low-All	0.000000
	3879988	4420	Forest-D-Med-All	0.000000
	3879988	4430	Forest-D-High-All	0.000000
	3879988	5110	Scrub-A-Low-All	0.000000
	3879988	5120	Scrub-A-Med-All	0.000000
	3879988	5130	Scrub-A-High-All	0.000000
	3879988	5210	Scrub-B-Low-All	0.000000
	3879988	5220	Scrub-B-Med-All	0.000000
	3879988	5230	Scrub-B-High-All	0.000000
	3879988	5310	Scrub-C-Low-All	0.000000
	3879988	5320	Scrub-C-Med-All	0.000000
	3879988	5330	Scrub-C-High-All	0.000000
	3879988	5410	Scrub-D-Low-All	0.000000
	3879988	5420	Scrub-D-Med-All	0.000000
	3879988	5430	Scrub-D-High-All	0.000000
	3879988	6110	Grassland-A-Low-All	0.000000
	3879988	6120	Grassland-A-Med-All	0.000000
	3879988	6130	Grassland-A-High-All	0.000000
	3879988	6210	Grassland-B-Low-All	0.000000
	3879988	6220	Grassland-B-Med-All	0.000000
	3879988	6230	Grassland-B-High-All	0.000000
	3879988	6310	Grassland-C-Low-All	0.000000
	3879988	6320	Grassland-C-Med-All	0.000000
	3879988	6330	Grassland-C-High-All	0.000000
	3879988	6410	Grassland-D-Low-All	0.000000
	3879988	6420	Grassland-D-Med-All	0.000000
	3879988	6430	Grassland-D-High-All	0.000000
	3879988	7110	Pasture-A-Low-All	0.000000
	3879988	7120	Pasture-A-Med-All	0.000000
	3879988	7130	Pasture-A-High-All	0.000000
	3879988	7210	Pasture-B-Low-All	0.000000
	3879988	7220	Pasture-B-Med-All	0.000000
	3879988	7230	Pasture-B-High-All	0.000000
	3879988	7310	Pasture-C-Low-All	0.000000
	3879988	7320	Pasture-C-Med-All	0.000000
	3879988	7330	Pasture-C-High-All	0.000000
	3879988	7410	Pasture-D-Low-All	0.000000
	3879988	7420	Pasture-D-Med-All	0.000000
	3879988	7430	Pasture-D-High-All	0.000000
	3879988	8110	Agriculture-A-Low-All	0.000000
	3879988	8120	Agriculture-A-Med-All	0.000000
	3879988	8130	Agriculture-A-High-All	0.000000
	3879988	8210	Agriculture-B-Low-All	0.000000
	3879988	8220	Agriculture-B-Med-All	0.000000
	3879988	8230	Agriculture-B-High-All	0.000000
	3879988	8310	Agriculture-C-Low-All	0.000000
	3879988	8320	Agriculture-C-Med-All	0.000000
	3879988	8330	Agriculture-C-High-All	0.000000
	3879988	8410	Agriculture-D-Low-All	0.000000
	3879988	8420	Agriculture-D-Med-All	0.000000
	3879988	8430	Agriculture-D-High-All	0.000000
	3879988	9000	Water-All-All-All	0.000000
	3879988	10110	Irrigation-A-Low-All	0.000000
	3879988	10120	Irrigation-A-Med-All	0.000000
	3879988	10130	Irrigation-A-High-All	0.000000
	3879988	10210	Irrigation-B-Low-All	0.000000
	3879988	10220	Irrigation-B-Med-All	0.000000
	3879988	10230	Irrigation-B-High-All	0.000000
	3879988	10310	Irrigation-C-Low-All	0.000000
	3879988	10320	Irrigation-C-Med-All	0.000000
	3879988	10330	Irrigation-C-High-All	0.000000
	3879988	10410	Irrigation-D-Low-All	0.000000
	3879988	10420	Irrigation-D-Med-All	0.000000
	3879988	10430	Irrigation-D-High-All	0.000000
	3879990	1000	Developed_Impervious-All-All-All	0.000000
	3879990	2110	Developed_Pervious-A-Low-All	0.000000
	3879990	2120	Developed_Pervious-A-Med-All	0.000000
	3879990	2130	Developed_Pervious-A-High-All	0.000000
	3879990	2210	Developed_Pervious-B-Low-All	0.000000
	3879990	2220	Developed_Pervious-B-Med-All	0.000000
	3879990	2230	Developed_Pervious-B-High-All	0.000000
	3879990	2310	Developed_Pervious-C-Low-All	0.000000
	3879990	2320	Developed_Pervious-C-Med-All	0.000000
	3879990	2330	Developed_Pervious-C-High-All	0.000000
	3879990	2410	Developed_Pervious-D-Low-All	0.000000
	3879990	2420	Developed_Pervious-D-Med-All	0.000000
	3879990	2430	Developed_Pervious-D-High-All	0.000000
	3879990	3110	Barren-A-Low-All	0.000000
	3879990	3120	Barren-A-Med-All	0.000000
	3879990	3130	Barren-A-High-All	0.000000
	3879990	3210	Barren-B-Low-All	0.000000
	3879990	3220	Barren-B-Med-All	0.000000
	3879990	3230	Barren-B-High-All	0.000000
	3879990	3310	Barren-C-Low-All	0.000000
	3879990	3320	Barren-C-Med-All	0.000000
	3879990	3330	Barren-C-High-All	0.000000
	3879990	3410	Barren-D-Low-All	0.000000
	3879990	3420	Barren-D-Med-All	0.000000
	3879990	3430	Barren-D-High-All	0.000000
	3879990	4110	Forest-A-Low-All	0.000000
	3879990	4120	Forest-A-Med-All	0.000000
	3879990	4130	Forest-A-High-All	0.000000
	3879990	4210	Forest-B-Low-All	0.000000
	3879990	4220	Forest-B-Med-All	0.000000
	3879990	4230	Forest-B-High-All	0.000000
	3879990	4310	Forest-C-Low-All	0.000000
	3879990	4320	Forest-C-Med-All	0.000000
	3879990	4330	Forest-C-High-All	0.000000
	3879990	4410	Forest-D-Low-All	0.000000
	3879990	4420	Forest-D-Med-All	0.000000
	3879990	4430	Forest-D-High-All	0.000000
	3879990	5110	Scrub-A-Low-All	0.000000
	3879990	5120	Scrub-A-Med-All	0.000000
	3879990	5130	Scrub-A-High-All	0.000000
	3879990	5210	Scrub-B-Low-All	0.000000
	3879990	5220	Scrub-B-Med-All	0.000000
	3879990	5230	Scrub-B-High-All	0.000000
	3879990	5310	Scrub-C-Low-All	0.000000
	3879990	5320	Scrub-C-Med-All	0.000000
	3879990	5330	Scrub-C-High-All	0.000000
	3879990	5410	Scrub-D-Low-All	0.000000
	3879990	5420	Scrub-D-Med-All	0.000000
	3879990	5430	Scrub-D-High-All	0.000000
	3879990	6110	Grassland-A-Low-All	0.000000
	3879990	6120	Grassland-A-Med-All	0.000000
	3879990	6130	Grassland-A-High-All	0.000000
	3879990	6210	Grassland-B-Low-All	0.000000
	3879990	6220	Grassland-B-Med-All	0.000000
	3879990	6230	Grassland-B-High-All	0.000000
	3879990	6310	Grassland-C-Low-All	0.000000
	3879990	6320	Grassland-C-Med-All	0.000000
	3879990	6330	Grassland-C-High-All	0.000000
	3879990	6410	Grassland-D-Low-All	0.000000
	3879990	6420	Grassland-D-Med-All	0.000000
	3879990	6430	Grassland-D-High-All	0.000000
	3879990	7110	Pasture-A-Low-All	0.000000
	3879990	7120	Pasture-A-Med-All	0.000000
	3879990	7130	Pasture-A-High-All	0.000000
	3879990	7210	Pasture-B-Low-All	0.000000
	3879990	7220	Pasture-B-Med-All	0.000000
	3879990	7230	Pasture-B-High-All	0.000000
	3879990	7310	Pasture-C-Low-All	0.000000
	3879990	7320	Pasture-C-Med-All	0.000000
	3879990	7330	Pasture-C-High-All	0.000000
	3879990	7410	Pasture-D-Low-All	0.000000
	3879990	7420	Pasture-D-Med-All	0.000000
	3879990	7430	Pasture-D-High-All	0.000000
	3879990	8110	Agriculture-A-Low-All	0.000000
	3879990	8120	Agriculture-A-Med-All	0.000000
	3879990	8130	Agriculture-A-High-All	0.000000
	3879990	8210	Agriculture-B-Low-All	0.000000
	3879990	8220	Agriculture-B-Med-All	0.000000
	3879990	8230	Agriculture-B-High-All	0.000000
	3879990	8310	Agriculture-C-Low-All	0.000000
	3879990	8320	Agriculture-C-Med-All	0.000000
	3879990	8330	Agriculture-C-High-All	0.000000
	3879990	8410	Agriculture-D-Low-All	0.000000
	3879990	8420	Agriculture-D-Med-All	0.000000
	3879990	8430	Agriculture-D-High-All	0.000000
	3879990	9000	Water-All-All-All	0.000000
	3879990	10110	Irrigation-A-Low-All	0.000000
	3879990	10120	Irrigation-A-Med-All	0.000000
	3879990	10130	Irrigation-A-High-All	0.000000
	3879990	10210	Irrigation-B-Low-All	0.000000
	3879990	10220	Irrigation-B-Med-All	0.000000
	3879990	10230	Irrigation-B-High-All	0.000000
	3879990	10310	Irrigation-C-Low-All	0.000000
	3879990	10320	Irrigation-C-Med-All	0.000000
	3879990	10330	Irrigation-C-High-All	0.000000
	3879990	10410	Irrigation-D-Low-All	0.000000
	3879990	10420	Irrigation-D-Med-All	0.000000
	3879990	10430	Irrigation-D-High-All	0.000000
	3879994	1000	Developed_Impervious-All-All-All	0.000000
	3879994	2110	Developed_Pervious-A-Low-All	0.000000
	3879994	2120	Developed_Pervious-A-Med-All	0.000000
	3879994	2130	Developed_Pervious-A-High-All	0.000000
	3879994	2210	Developed_Pervious-B-Low-All	0.000000
	3879994	2220	Developed_Pervious-B-Med-All	0.000000
	3879994	2230	Developed_Pervious-B-High-All	0.000000
	3879994	2310	Developed_Pervious-C-Low-All	0.000000
	3879994	2320	Developed_Pervious-C-Med-All	0.000000
	3879994	2330	Developed_Pervious-C-High-All	0.000000
	3879994	2410	Developed_Pervious-D-Low-All	0.000000
	3879994	2420	Developed_Pervious-D-Med-All	0.000000
	3879994	2430	Developed_Pervious-D-High-All	0.000000
	3879994	3110	Barren-A-Low-All	0.000000
	3879994	3120	Barren-A-Med-All	0.000000
	3879994	3130	Barren-A-High-All	0.000000
	3879994	3210	Barren-B-Low-All	0.000000
	3879994	3220	Barren-B-Med-All	0.000000
	3879994	3230	Barren-B-High-All	0.000000
	3879994	3310	Barren-C-Low-All	0.000000
	3879994	3320	Barren-C-Med-All	0.000000
	3879994	3330	Barren-C-High-All	0.000000
	3879994	3410	Barren-D-Low-All	0.000000
	3879994	3420	Barren-D-Med-All	0.000000
	3879994	3430	Barren-D-High-All	0.000000
	3879994	4110	Forest-A-Low-All	0.000000
	3879994	4120	Forest-A-Med-All	0.000000
	3879994	4130	Forest-A-High-All	0.000000
	3879994	4210	Forest-B-Low-All	0.000000
	3879994	4220	Forest-B-Med-All	0.000000
	3879994	4230	Forest-B-High-All	0.000000
	3879994	4310	Forest-C-Low-All	0.000000
	3879994	4320	Forest-C-Med-All	0.000000
	3879994	4330	Forest-C-High-All	0.000000
	3879994	4410	Forest-D-Low-All	0.000000
	3879994	4420	Forest-D-Med-All	0.000000
	3879994	4430	Forest-D-High-All	0.000000
	3879994	5110	Scrub-A-Low-All	0.000000
	3879994	5120	Scrub-A-Med-All	0.000000
	3879994	5130	Scrub-A-High-All	0.000000
	3879994	5210	Scrub-B-Low-All	0.000000
	3879994	5220	Scrub-B-Med-All	0.000000
	3879994	5230	Scrub-B-High-All	0.000000
	3879994	5310	Scrub-C-Low-All	0.000000
	3879994	5320	Scrub-C-Med-All	0.000000
	3879994	5330	Scrub-C-High-All	0.000000
	3879994	5410	Scrub-D-Low-All	0.000000
	3879994	5420	Scrub-D-Med-All	0.000000
	3879994	5430	Scrub-D-High-All	0.000000
	3879994	6110	Grassland-A-Low-All	0.000000
	3879994	6120	Grassland-A-Med-All	0.000000
	3879994	6130	Grassland-A-High-All	0.000000
	3879994	6210	Grassland-B-Low-All	0.000000
	3879994	6220	Grassland-B-Med-All	0.000000
	3879994	6230	Grassland-B-High-All	0.000000
	3879994	6310	Grassland-C-Low-All	0.000000
	3879994	6320	Grassland-C-Med-All	0.000000
	3879994	6330	Grassland-C-High-All	0.000000
	3879994	6410	Grassland-D-Low-All	0.000000
	3879994	6420	Grassland-D-Med-All	0.000000
	3879994	6430	Grassland-D-High-All	0.000000
	3879994	7110	Pasture-A-Low-All	0.000000
	3879994	7120	Pasture-A-Med-All	0.000000
	3879994	7130	Pasture-A-High-All	0.000000
	3879994	7210	Pasture-B-Low-All	0.000000
	3879994	7220	Pasture-B-Med-All	0.000000
	3879994	7230	Pasture-B-High-All	0.000000
	3879994	7310	Pasture-C-Low-All	0.000000
	3879994	7320	Pasture-C-Med-All	0.000000
	3879994	7330	Pasture-C-High-All	0.000000
	3879994	7410	Pasture-D-Low-All	0.000000
	3879994	7420	Pasture-D-Med-All	0.000000
	3879994	7430	Pasture-D-High-All	0.000000
	3879994	8110	Agriculture-A-Low-All	0.000000
	3879994	8120	Agriculture-A-Med-All	0.000000
	3879994	8130	Agriculture-A-High-All	0.000000
	3879994	8210	Agriculture-B-Low-All	0.000000
	3879994	8220	Agriculture-B-Med-All	0.000000
	3879994	8230	Agriculture-B-High-All	0.000000
	3879994	8310	Agriculture-C-Low-All	0.000000
	3879994	8320	Agriculture-C-Med-All	0.000000
	3879994	8330	Agriculture-C-High-All	0.000000
	3879994	8410	Agriculture-D-Low-All	0.000000
	3879994	8420	Agriculture-D-Med-All	0.000000
	3879994	8430	Agriculture-D-High-All	0.000000
	3879994	9000	Water-All-All-All	0.000000
	3879994	10110	Irrigation-A-Low-All	0.000000
	3879994	10120	Irrigation-A-Med-All	0.000000
	3879994	10130	Irrigation-A-High-All	0.000000
	3879994	10210	Irrigation-B-Low-All	0.000000
	3879994	10220	Irrigation-B-Med-All	0.000000
	3879994	10230	Irrigation-B-High-All	0.000000
	3879994	10310	Irrigation-C-Low-All	0.000000
	3879994	10320	Irrigation-C-Med-All	0.000000
	3879994	10330	Irrigation-C-High-All	0.000000
	3879994	10410	Irrigation-D-Low-All	0.000000
	3879994	10420	Irrigation-D-Med-All	0.000000
	3879994	10430	Irrigation-D-High-All	0.000000
	3880284	1000	Developed_Impervious-All-All-All	0.000000
	3880284	2110	Developed_Pervious-A-Low-All	0.000000
	3880284	2120	Developed_Pervious-A-Med-All	0.000000
	3880284	2130	Developed_Pervious-A-High-All	0.000000
	3880284	2210	Developed_Pervious-B-Low-All	0.000000
	3880284	2220	Developed_Pervious-B-Med-All	0.000000
	3880284	2230	Developed_Pervious-B-High-All	0.000000
	3880284	2310	Developed_Pervious-C-Low-All	0.000000
	3880284	2320	Developed_Pervious-C-Med-All	0.000000
	3880284	2330	Developed_Pervious-C-High-All	0.000000
	3880284	2410	Developed_Pervious-D-Low-All	0.000000
	3880284	2420	Developed_Pervious-D-Med-All	0.000000
	3880284	2430	Developed_Pervious-D-High-All	0.000000
	3880284	3110	Barren-A-Low-All	0.000000
	3880284	3120	Barren-A-Med-All	0.000000
	3880284	3130	Barren-A-High-All	0.000000
	3880284	3210	Barren-B-Low-All	0.000000
	3880284	3220	Barren-B-Med-All	0.000000
	3880284	3230	Barren-B-High-All	0.000000
	3880284	3310	Barren-C-Low-All	0.000000
	3880284	3320	Barren-C-Med-All	0.000000
	3880284	3330	Barren-C-High-All	0.000000
	3880284	3410	Barren-D-Low-All	0.000000
	3880284	3420	Barren-D-Med-All	0.000000
	3880284	3430	Barren-D-High-All	0.000000
	3880284	4110	Forest-A-Low-All	0.000000
	3880284	4120	Forest-A-Med-All	0.000000
	3880284	4130	Forest-A-High-All	0.000000
	3880284	4210	Forest-B-Low-All	0.000000
	3880284	4220	Forest-B-Med-All	0.000000
	3880284	4230	Forest-B-High-All	0.000000
	3880284	4310	Forest-C-Low-All	0.000000
	3880284	4320	Forest-C-Med-All	0.000000
	3880284	4330	Forest-C-High-All	0.000000
	3880284	4410	Forest-D-Low-All	0.000000
	3880284	4420	Forest-D-Med-All	0.000000
	3880284	4430	Forest-D-High-All	0.000000
	3880284	5110	Scrub-A-Low-All	0.000000
	3880284	5120	Scrub-A-Med-All	0.000000
	3880284	5130	Scrub-A-High-All	0.000000
	3880284	5210	Scrub-B-Low-All	0.000000
	3880284	5220	Scrub-B-Med-All	0.000000
	3880284	5230	Scrub-B-High-All	0.000000
	3880284	5310	Scrub-C-Low-All	0.000000
	3880284	5320	Scrub-C-Med-All	0.000000
	3880284	5330	Scrub-C-High-All	0.000000
	3880284	5410	Scrub-D-Low-All	0.000000
	3880284	5420	Scrub-D-Med-All	0.000000
	3880284	5430	Scrub-D-High-All	0.000000
	3880284	6110	Grassland-A-Low-All	0.000000
	3880284	6120	Grassland-A-Med-All	0.000000
	3880284	6130	Grassland-A-High-All	0.000000
	3880284	6210	Grassland-B-Low-All	0.000000
	3880284	6220	Grassland-B-Med-All	0.000000
	3880284	6230	Grassland-B-High-All	0.000000
	3880284	6310	Grassland-C-Low-All	0.000000
	3880284	6320	Grassland-C-Med-All	0.000000
	3880284	6330	Grassland-C-High-All	0.000000
	3880284	6410	Grassland-D-Low-All	0.000000
	3880284	6420	Grassland-D-Med-All	0.000000
	3880284	6430	Grassland-D-High-All	0.000000
	3880284	7110	Pasture-A-Low-All	0.000000
	3880284	7120	Pasture-A-Med-All	0.000000
	3880284	7130	Pasture-A-High-All	0.000000
	3880284	7210	Pasture-B-Low-All	0.000000
	3880284	7220	Pasture-B-Med-All	0.000000
	3880284	7230	Pasture-B-High-All	0.000000
	3880284	7310	Pasture-C-Low-All	0.000000
	3880284	7320	Pasture-C-Med-All	0.000000
	3880284	7330	Pasture-C-High-All	0.000000
	3880284	7410	Pasture-D-Low-All	0.000000
	3880284	7420	Pasture-D-Med-All	0.000000
	3880284	7430	Pasture-D-High-All	0.000000
	3880284	8110	Agriculture-A-Low-All	0.000000
	3880284	8120	Agriculture-A-Med-All	0.000000
	3880284	8130	Agriculture-A-High-All	0.000000
	3880284	8210	Agriculture-B-Low-All	0.000000
	3880284	8220	Agriculture-B-Med-All	0.000000
	3880284	8230	Agriculture-B-High-All	0.000000
	3880284	8310	Agriculture-C-Low-All	0.000000
	3880284	8320	Agriculture-C-Med-All	0.000000
	3880284	8330	Agriculture-C-High-All	0.000000
	3880284	8410	Agriculture-D-Low-All	0.000000
	3880284	8420	Agriculture-D-Med-All	0.000000
	3880284	8430	Agriculture-D-High-All	0.000000
	3880284	9000	Water-All-All-All	0.000000
	3880284	10110	Irrigation-A-Low-All	0.000000
	3880284	10120	Irrigation-A-Med-All	0.000000
	3880284	10130	Irrigation-A-High-All	0.000000
	3880284	10210	Irrigation-B-Low-All	0.000000
	3880284	10220	Irrigation-B-Med-All	0.000000
	3880284	10230	Irrigation-B-High-All	0.000000
	3880284	10310	Irrigation-C-Low-All	0.000000
	3880284	10320	Irrigation-C-Med-All	0.000000
	3880284	10330	Irrigation-C-High-All	0.000000
	3880284	10410	Irrigation-D-Low-All	0.000000
	3880284	10420	Irrigation-D-Med-All	0.000000
	3880284	10430	Irrigation-D-High-All	0.000000
	8889992	1000	Developed_Impervious-All-All-All	0.000000
	8889992	2110	Developed_Pervious-A-Low-All	0.000000
	8889992	2120	Developed_Pervious-A-Med-All	0.000000
	8889992	2130	Developed_Pervious-A-High-All	0.000000
	8889992	2210	Developed_Pervious-B-Low-All	0.000000
	8889992	2220	Developed_Pervious-B-Med-All	0.000000
	8889992	2230	Developed_Pervious-B-High-All	0.000000
	8889992	2310	Developed_Pervious-C-Low-All	0.000000
	8889992	2320	Developed_Pervious-C-Med-All	0.000000
	8889992	2330	Developed_Pervious-C-High-All	0.000000
	8889992	2410	Developed_Pervious-D-Low-All	0.000000
	8889992	2420	Developed_Pervious-D-Med-All	0.000000
	8889992	2430	Developed_Pervious-D-High-All	0.000000
	8889992	3110	Barren-A-Low-All	0.000000
	8889992	3120	Barren-A-Med-All	0.000000
	8889992	3130	Barren-A-High-All	0.000000
	8889992	3210	Barren-B-Low-All	0.000000
	8889992	3220	Barren-B-Med-All	0.000000
	8889992	3230	Barren-B-High-All	0.000000
	8889992	3310	Barren-C-Low-All	0.000000
	8889992	3320	Barren-C-Med-All	0.000000
	8889992	3330	Barren-C-High-All	0.000000
	8889992	3410	Barren-D-Low-All	0.000000
	8889992	3420	Barren-D-Med-All	0.000000
	8889992	3430	Barren-D-High-All	0.000000
	8889992	4110	Forest-A-Low-All	0.000000
	8889992	4120	Forest-A-Med-All	0.000000
	8889992	4130	Forest-A-High-All	0.000000
	8889992	4210	Forest-B-Low-All	0.000000
	8889992	4220	Forest-B-Med-All	0.000000
	8889992	4230	Forest-B-High-All	0.000000
	8889992	4310	Forest-C-Low-All	0.000000
	8889992	4320	Forest-C-Med-All	0.000000
	8889992	4330	Forest-C-High-All	0.000000
	8889992	4410	Forest-D-Low-All	0.000000
	8889992	4420	Forest-D-Med-All	0.000000
	8889992	4430	Forest-D-High-All	0.000000
	8889992	5110	Scrub-A-Low-All	0.000000
	8889992	5120	Scrub-A-Med-All	0.000000
	8889992	5130	Scrub-A-High-All	0.000000
	8889992	5210	Scrub-B-Low-All	0.000000
	8889992	5220	Scrub-B-Med-All	0.000000
	8889992	5230	Scrub-B-High-All	0.000000
	8889992	5310	Scrub-C-Low-All	0.000000
	8889992	5320	Scrub-C-Med-All	0.000000
	8889992	5330	Scrub-C-High-All	0.000000
	8889992	5410	Scrub-D-Low-All	0.000000
	8889992	5420	Scrub-D-Med-All	0.000000
	8889992	5430	Scrub-D-High-All	0.000000
	8889992	6110	Grassland-A-Low-All	0.000000
	8889992	6120	Grassland-A-Med-All	0.000000
	8889992	6130	Grassland-A-High-All	0.000000
	8889992	6210	Grassland-B-Low-All	0.000000
	8889992	6220	Grassland-B-Med-All	0.000000
	8889992	6230	Grassland-B-High-All	0.000000
	8889992	6310	Grassland-C-Low-All	0.000000
	8889992	6320	Grassland-C-Med-All	0.000000
	8889992	6330	Grassland-C-High-All	0.000000
	8889992	6410	Grassland-D-Low-All	0.000000
	8889992	6420	Grassland-D-Med-All	0.000000
	8889992	6430	Grassland-D-High-All	0.000000
	8889992	7110	Pasture-A-Low-All	0.000000
	8889992	7120	Pasture-A-Med-All	0.000000
	8889992	7130	Pasture-A-High-All	0.000000
	8889992	7210	Pasture-B-Low-All	0.000000
	8889992	7220	Pasture-B-Med-All	0.000000
	8889992	7230	Pasture-B-High-All	0.000000
	8889992	7310	Pasture-C-Low-All	0.000000
	8889992	7320	Pasture-C-Med-All	0.000000
	8889992	7330	Pasture-C-High-All	0.000000
	8889992	7410	Pasture-D-Low-All	0.000000
	8889992	7420	Pasture-D-Med-All	0.000000
	8889992	7430	Pasture-D-High-All	0.000000
	8889992	8110	Agriculture-A-Low-All	0.000000
	8889992	8120	Agriculture-A-Med-All	0.000000
	8889992	8130	Agriculture-A-High-All	0.000000
	8889992	8210	Agriculture-B-Low-All	0.000000
	8889992	8220	Agriculture-B-Med-All	0.000000
	8889992	8230	Agriculture-B-High-All	0.000000
	8889992	8310	Agriculture-C-Low-All	0.000000
	8889992	8320	Agriculture-C-Med-All	0.000000
	8889992	8330	Agriculture-C-High-All	0.000000
	8889992	8410	Agriculture-D-Low-All	0.000000
	8889992	8420	Agriculture-D-Med-All	0.000000
	8889992	8430	Agriculture-D-High-All	0.000000
	8889992	9000	Water-All-All-All	0.000000
	8889992	10110	Irrigation-A-Low-All	0.000000
	8889992	10120	Irrigation-A-Med-All	0.000000
	8889992	10130	Irrigation-A-High-All	0.000000
	8889992	10210	Irrigation-B-Low-All	0.000000
	8889992	10220	Irrigation-B-Med-All	0.000000
	8889992	10230	Irrigation-B-High-All	0.000000
	8889992	10310	Irrigation-C-Low-All	0.000000
	8889992	10320	Irrigation-C-Med-All	0.000000
	8889992	10330	Irrigation-C-High-All	0.000000
	8889992	10410	Irrigation-D-Low-All	0.000000
	8889992	10420	Irrigation-D-Med-All	0.000000
	8889992	10430	Irrigation-D-High-All	0.000000
	9999992	1000	Developed_Impervious-All-All-All	0.000000
	9999992	2110	Developed_Pervious-A-Low-All	0.000000
	9999992	2120	Developed_Pervious-A-Med-All	0.000000
	9999992	2130	Developed_Pervious-A-High-All	0.000000
	9999992	2210	Developed_Pervious-B-Low-All	0.000000
	9999992	2220	Developed_Pervious-B-Med-All	0.000000
	9999992	2230	Developed_Pervious-B-High-All	0.000000
	9999992	2310	Developed_Pervious-C-Low-All	0.000000
	9999992	2320	Developed_Pervious-C-Med-All	0.000000
	9999992	2330	Developed_Pervious-C-High-All	0.000000
	9999992	2410	Developed_Pervious-D-Low-All	0.000000
	9999992	2420	Developed_Pervious-D-Med-All	0.000000
	9999992	2430	Developed_Pervious-D-High-All	0.000000
	9999992	3110	Barren-A-Low-All	0.000000
	9999992	3120	Barren-A-Med-All	0.000000
	9999992	3130	Barren-A-High-All	0.000000
	9999992	3210	Barren-B-Low-All	0.000000
	9999992	3220	Barren-B-Med-All	0.000000
	9999992	3230	Barren-B-High-All	0.000000
	9999992	3310	Barren-C-Low-All	0.000000
	9999992	3320	Barren-C-Med-All	0.000000
	9999992	3330	Barren-C-High-All	0.000000
	9999992	3410	Barren-D-Low-All	0.000000
	9999992	3420	Barren-D-Med-All	0.000000
	9999992	3430	Barren-D-High-All	0.000000
	9999992	4110	Forest-A-Low-All	0.000000
	9999992	4120	Forest-A-Med-All	0.000000
	9999992	4130	Forest-A-High-All	0.000000
	9999992	4210	Forest-B-Low-All	0.000000
	9999992	4220	Forest-B-Med-All	0.000000
	9999992	4230	Forest-B-High-All	0.000000
	9999992	4310	Forest-C-Low-All	0.000000
	9999992	4320	Forest-C-Med-All	0.000000
	9999992	4330	Forest-C-High-All	0.000000
	9999992	4410	Forest-D-Low-All	0.000000
	9999992	4420	Forest-D-Med-All	0.000000
	9999992	4430	Forest-D-High-All	0.000000
	9999992	5110	Scrub-A-Low-All	0.000000
	9999992	5120	Scrub-A-Med-All	0.000000
	9999992	5130	Scrub-A-High-All	0.000000
	9999992	5210	Scrub-B-Low-All	0.000000
	9999992	5220	Scrub-B-Med-All	0.000000
	9999992	5230	Scrub-B-High-All	0.000000
	9999992	5310	Scrub-C-Low-All	0.000000
	9999992	5320	Scrub-C-Med-All	0.000000
	9999992	5330	Scrub-C-High-All	0.000000
	9999992	5410	Scrub-D-Low-All	0.000000
	9999992	5420	Scrub-D-Med-All	0.000000
	9999992	5430	Scrub-D-High-All	0.000000
	9999992	6110	Grassland-A-Low-All	0.000000
	9999992	6120	Grassland-A-Med-All	0.000000
	9999992	6130	Grassland-A-High-All	0.000000
	9999992	6210	Grassland-B-Low-All	0.000000
	9999992	6220	Grassland-B-Med-All	0.000000
	9999992	6230	Grassland-B-High-All	0.000000
	9999992	6310	Grassland-C-Low-All	0.000000
	9999992	6320	Grassland-C-Med-All	0.000000
	9999992	6330	Grassland-C-High-All	0.000000
	9999992	6410	Grassland-D-Low-All	0.000000
	9999992	6420	Grassland-D-Med-All	0.000000
	9999992	6430	Grassland-D-High-All	0.000000
	9999992	7110	Pasture-A-Low-All	0.000000
	9999992	7120	Pasture-A-Med-All	0.000000
	9999992	7130	Pasture-A-High-All	0.000000
	9999992	7210	Pasture-B-Low-All	0.000000
	9999992	7220	Pasture-B-Med-All	0.000000
	9999992	7230	Pasture-B-High-All	0.000000
	9999992	7310	Pasture-C-Low-All	0.000000
	9999992	7320	Pasture-C-Med-All	0.000000
	9999992	7330	Pasture-C-High-All	0.000000
	9999992	7410	Pasture-D-Low-All	0.000000
	9999992	7420	Pasture-D-Med-All	0.000000
	9999992	7430	Pasture-D-High-All	0.000000
	9999992	8110	Agriculture-A-Low-All	0.000000
	9999992	8120	Agriculture-A-Med-All	0.000000
	9999992	8130	Agriculture-A-High-All	0.000000
	9999992	8210	Agriculture-B-Low-All	0.000000
	9999992	8220	Agriculture-B-Med-All	0.000000
	9999992	8230	Agriculture-B-High-All	0.000000
	9999992	8310	Agriculture-C-Low-All	0.000000
	9999992	8320	Agriculture-C-Med-All	0.000000
	9999992	8330	Agriculture-C-High-All	0.000000
	9999992	8410	Agriculture-D-Low-All	0.000000
	9999992	8420	Agriculture-D-Med-All	0.000000
	9999992	8430	Agriculture-D-High-All	0.000000
	9999992	9000	Water-All-All-All	0.000000
	9999992	10110	Irrigation-A-Low-All	0.000000
	9999992	10120	Irrigation-A-Med-All	0.000000
	9999992	10130	Irrigation-A-High-All	0.000000
	9999992	10210	Irrigation-B-Low-All	0.000000
	9999992	10220	Irrigation-B-Med-All	0.000000
	9999992	10230	Irrigation-B-High-All	0.000000
	9999992	10310	Irrigation-C-Low-All	0.000000
	9999992	10320	Irrigation-C-Med-All	0.000000
	9999992	10330	Irrigation-C-High-All	0.000000
	9999992	10410	Irrigation-D-Low-All	0.000000
	9999992	10420	Irrigation-D-Med-All	0.000000
	9999992	10430	Irrigation-D-High-All	0.000000
c--------------------------------------------------------------------------------------------
c680 TMDL reach control (used if ncrch > 0 on card 600)
c
c    rchid         controlled reach id
c    outlet        controlled reach outlet id
c    switch_mon    monthly switch to control conc limit or reduction of pollutant from the corresponding reach (0-off, 1-on)
c
c	rchid	outlet	switch_1	switch_2	switch_3	switch_4	switch_5	switch_6	switch_7	switch_8	switch_9	switch_10	switch_11	switch_12
c--------------------------------------------------------------------------------------------
c685 TMDL reach control (used if ncrch > 0 on card 600)
c
c    rchid         controlled reach id
c    outlet        controlled reach outlet id
c    limit-flow    flow limit from the corresponding reach (cfs)
c    limit_pol     concentration limit of pollutant from the corresponding reach (mg/l or ug/l or mpn/100ml)
c
c	rchid	outlet	limit_flow	limit_qual1	limit_qual2	limit_qualn
c--------------------------------------------------------------------------------------------
c690 TMDL reach control (used if ncrch > 0 on card 600)
c
c    rchid         controlled reach id
c    outlet        controlled reach outlet id
c    reduction     reduction of pollutant from the corresponding reach (fraction)
c                  reduction in outflow will also reduce the pollutant mass from the outflow and 
c                  any defined reduction to pollutant will be the additional
c
c	rchid	outlet	reduction_flow	reduction_qual1	reduction_qual2	reduction_qualn
c--------------------------------------------------------------------------------------------
